NAME : C101
COMMENT : Generated from c101.txt
TYPE : SDVRPTW
DIMENSION : 51
EDGE_WEIGHT_TYPE : EUC_2D
CAPACITY : 100
NODE_COORD_SECTION
1 40 50
2 45 68
3 45 70
4 42 66
5 42 68
6 42 65
7 40 69
8 40 66
9 38 68
10 38 70
11 35 66
12 35 69
13 25 85
14 22 75
15 22 85
16 20 80
17 20 85
18 18 75
19 15 75
20 15 80
21 30 50
22 30 52
23 28 52
24 28 55
25 25 50
26 25 52
27 25 55
28 23 52
29 23 55
30 20 50
31 20 55
32 10 35
33 10 40
34 8 40
35 8 45
36 5 35
37 5 45
38 2 40
39 0 40
40 0 45
41 35 30
42 35 32
43 33 32
44 33 35
45 32 30
46 30 30
47 30 32
48 30 35
49 28 30
50 28 35
51 26 32
DEMAND_SECTION
1 0
2 10
3 30
4 10
5 10
6 10
7 20
8 20
9 20
10 10
11 10
12 10
13 20
14 30
15 10
16 40
17 40
18 20
19 20
20 10
21 10
22 20
23 20
24 10
25 10
26 40
27 10
28 10
29 20
30 10
31 10
32 20
33 30
34 40
35 20
36 10
37 10
38 20
39 30
40 20
41 10
42 10
43 20
44 10
45 10
46 10
47 30
48 10
49 10
50 10
51 10
TIME_WINDOW_SECTION
1 0 1236
2 912 967
3 825 870
4 65 146
5 727 782
6 15 67
7 621 702
8 170 225
9 255 324
10 534 605
11 357 410
12 448 505
13 652 721
14 30 92
15 567 620
16 384 429
17 475 528
18 99 148
19 179 254
20 278 345
21 10 73
22 914 965
23 812 883
24 732 777
25 65 144
26 169 224
27 622 701
28 261 316
29 546 593
30 358 405
31 449 504
32 200 237
33 31 100
34 87 158
35 751 816
36 283 344
37 665 716
38 383 434
39 479 522
40 567 624
41 264 321
42 166 235
43 68 149
44 16 80
45 359 412
46 541 600
47 448 509
48 1054 1127
49 632 693
50 1001 1066
51 815 880
SERVICE_TIME_SECTION
1 0
2 90
3 90
4 90
5 90
6 90
7 90
8 90
9 90
10 90
11 90
12 90
13 90
14 90
15 90
16 90
17 90
18 90
19 90
20 90
21 90
22 90
23 90
24 90
25 90
26 90
27 90
28 90
29 90
30 90
31 90
32 90
33 90
34 90
35 90
36 90
37 90
38 90
39 90
40 90
41 90
42 90
43 90
44 90
45 90
46 90
47 90
48 90
49 90
50 90
51 90
DEPOT_SECTION
1
-1
EOF
