NAME : R201
COMMENT : Generated from r201.txt
TYPE : SDVRPTW
DIMENSION : 51
EDGE_WEIGHT_TYPE : EUC_2D
CAPACITY : 100
NODE_COORD_SECTION
1 35 35
2 41 49
3 35 17
4 55 45
5 55 20
6 15 30
7 25 30
8 20 50
9 10 43
10 55 60
11 30 60
12 20 65
13 50 35
14 30 25
15 15 10
16 30 5
17 10 20
18 5 30
19 20 40
20 15 60
21 45 65
22 45 20
23 45 10
24 55 5
25 65 35
26 65 20
27 45 30
28 35 40
29 41 37
30 64 42
31 40 60
32 31 52
33 35 69
34 53 52
35 65 55
36 63 65
37 2 60
38 20 20
39 5 5
40 60 12
41 40 25
42 42 7
43 24 12
44 23 3
45 11 14
46 6 38
47 2 48
48 8 56
49 13 52
50 6 68
51 47 47
DEMAND_SECTION
1 0
2 10
3 7
4 13
5 19
6 26
7 3
8 5
9 9
10 16
11 16
12 12
13 19
14 23
15 20
16 8
17 19
18 2
19 12
20 17
21 9
22 11
23 18
24 29
25 3
26 6
27 17
28 16
29 16
30 9
31 21
32 27
33 23
34 11
35 14
36 8
37 5
38 8
39 16
40 31
41 9
42 5
43 5
44 7
45 18
46 16
47 1
48 27
49 36
50 30
51 13
TIME_WINDOW_SECTION
1 0 1000
2 707 848
3 143 282
4 527 584
5 678 801
6 34 209
7 415 514
8 331 410
9 404 481
10 400 497
11 577 632
12 206 325
13 228 345
14 690 827
15 32 243
16 175 300
17 272 373
18 733 870
19 377 434
20 269 378
21 581 666
22 214 331
23 409 494
24 206 325
25 704 847
26 817 956
27 588 667
28 104 255
29 114 255
30 190 313
31 259 354
32 152 275
33 660 777
34 45 200
35 529 614
36 686 813
37 41 208
38 606 693
39 302 405
40 33 224
41 360 437
42 396 511
43 25 172
44 620 705
45 233 340
46 29 189
47 515 628
48 85 250
49 773 906
50 501 540
51 547 642
SERVICE_TIME_SECTION
1 0
2 10
3 10
4 10
5 10
6 10
7 10
8 10
9 10
10 10
11 10
12 10
13 10
14 10
15 10
16 10
17 10
18 10
19 10
20 10
21 10
22 10
23 10
24 10
25 10
26 10
27 10
28 10
29 10
30 10
31 10
32 10
33 10
34 10
35 10
36 10
37 10
38 10
39 10
40 10
41 10
42 10
43 10
44 10
45 10
46 10
47 10
48 10
49 10
50 10
51 10
DEPOT_SECTION
1
-1
EOF
