NAME : C104
COMMENT : Generated from c104.txt
TYPE : SDVRPTW
DIMENSION : 101
EDGE_WEIGHT_TYPE : EUC_2D
CAPACITY : 30
NODE_COORD_SECTION
1 40 50
2 45 68
3 45 70
4 42 66
5 42 68
6 42 65
7 40 69
8 40 66
9 38 68
10 38 70
11 35 66
12 35 69
13 25 85
14 22 75
15 22 85
16 20 80
17 20 85
18 18 75
19 15 75
20 15 80
21 30 50
22 30 52
23 28 52
24 28 55
25 25 50
26 25 52
27 25 55
28 23 52
29 23 55
30 20 50
31 20 55
32 10 35
33 10 40
34 8 40
35 8 45
36 5 35
37 5 45
38 2 40
39 0 40
40 0 45
41 35 30
42 35 32
43 33 32
44 33 35
45 32 30
46 30 30
47 30 32
48 30 35
49 28 30
50 28 35
51 26 32
52 25 30
53 25 35
54 44 5
55 42 10
56 42 15
57 40 5
58 40 15
59 38 5
60 38 15
61 35 5
62 50 30
63 50 35
64 50 40
65 48 30
66 48 40
67 47 35
68 47 40
69 45 30
70 45 35
71 95 30
72 95 35
73 53 30
74 92 30
75 53 35
76 45 65
77 90 35
78 88 30
79 88 35
80 87 30
81 85 25
82 85 35
83 75 55
84 72 55
85 70 58
86 68 60
87 66 55
88 65 55
89 65 60
90 63 58
91 60 55
92 60 60
93 67 85
94 65 85
95 65 82
96 62 80
97 60 80
98 60 85
99 58 75
100 55 80
101 55 85
DEMAND_SECTION
1 0 0
2 10 5
3 30 1
4 10 3
5 10 2
6 10 3
7 20 4
8 20 3
9 20 5
10 10 2
11 10 4
12 10 4
13 20 5
14 30 5
15 10 3
16 40 3
17 40 4
18 20 6
19 20 5
20 10 4
21 10 5
22 20 5
23 20 1
24 10 6
25 10 5
26 40 1
27 10 1
28 10 6
29 20 4
30 10 2
31 10 6
32 20 3
33 30 5
34 40 3
35 20 6
36 10 5
37 10 5
38 20 1
39 30 1
40 20 5
41 10 1
42 10 2
43 20 1
44 10 4
45 10 5
46 10 2
47 30 5
48 10 6
49 10 2
50 10 5
51 10 4
52 10 6
53 10 4
54 20 1
55 40 2
56 10 4
57 30 6
58 40 5
59 30 3
60 10 4
61 20 2
62 10 4
63 20 5
64 50 3
65 10 5
66 10 1
67 10 1
68 10 6
69 10 3
70 10 1
71 30 4
72 20 1
73 10 6
74 10 2
75 50 6
76 20 4
77 10 6
78 10 1
79 20 4
80 10 5
81 10 5
82 30 6
83 20 2
84 10 3
85 20 1
86 30 1
87 10 5
88 20 3
89 30 5
90 10 5
91 10 4
92 10 1
93 20 4
94 40 2
95 10 4
96 30 4
97 10 4
98 30 6
99 20 1
100 10 6
101 20 5
TYPE_CONFLICT
5 6
3 4
4 6
2 3
1 2
3 5
3 6
2 5
1 3
1 6
TIME_WINDOW_SECTION
1 0 1236
2 0 1127
3 0 1125
4 0 1129
5 727 782
6 0 1130
7 0 1127
8 0 1130
9 255 324
10 534 605
11 0 1129
12 448 505
13 0 1107
14 30 92
15 0 1106
16 384 429
17 0 1105
18 0 1112
19 0 1110
20 0 1106
21 0 1136
22 0 1135
23 0 1133
24 732 777
25 0 1131
26 169 224
27 0 1130
28 0 1128
29 0 1128
30 0 1126
31 0 1125
32 0 1112
33 0 1114
34 0 1112
35 0 1113
36 0 1107
37 0 1110
38 0 1106
39 479 522
40 0 1105
41 0 1125
42 0 1127
43 0 1126
44 0 1129
45 359 412
46 0 1123
47 0 1125
48 0 1127
49 0 1122
50 0 1126
51 0 1123
52 0 1121
53 0 1124
54 286 347
55 0 1105
56 95 158
57 0 1101
58 0 1111
59 471 534
60 0 1110
61 0 1100
62 0 1123
63 262 317
64 0 1131
65 0 1124
66 0 1133
67 0 1129
68 12 77
69 0 1125
70 916 969
71 0 1087
72 0 1088
73 0 1122
74 0 1090
75 353 412
76 0 1130
77 203 260
78 574 643
79 0 1095
80 668 731
81 0 1094
82 0 1098
83 0 1110
84 0 1113
85 458 523
86 0 1116
87 0 1119
88 85 144
89 0 1119
90 0 1121
91 0 1125
92 0 1123
93 368 441
94 0 1102
95 0 1105
96 0 1108
97 0 1109
98 0 1105
99 0 1115
100 743 820
101 647 726
SERVICE_TIME_SECTION
1 0
2 90
3 90
4 90
5 90
6 90
7 90
8 90
9 90
10 90
11 90
12 90
13 90
14 90
15 90
16 90
17 90
18 90
19 90
20 90
21 90
22 90
23 90
24 90
25 90
26 90
27 90
28 90
29 90
30 90
31 90
32 90
33 90
34 90
35 90
36 90
37 90
38 90
39 90
40 90
41 90
42 90
43 90
44 90
45 90
46 90
47 90
48 90
49 90
50 90
51 90
52 90
53 90
54 90
55 90
56 90
57 90
58 90
59 90
60 90
61 90
62 90
63 90
64 90
65 90
66 90
67 90
68 90
69 90
70 90
71 90
72 90
73 90
74 90
75 90
76 90
77 90
78 90
79 90
80 90
81 90
82 90
83 90
84 90
85 90
86 90
87 90
88 90
89 90
90 90
91 90
92 90
93 90
94 90
95 90
96 90
97 90
98 90
99 90
100 90
101 90
DEPOT_SECTION
1
-1
EOF
