NAME : R102
COMMENT : Generated from r102.txt
TYPE : SDVRPTW
DIMENSION : 101
EDGE_WEIGHT_TYPE : EUC_2D
CAPACITY : 30
NODE_COORD_SECTION
1 35 35
2 41 49
3 35 17
4 55 45
5 55 20
6 15 30
7 25 30
8 20 50
9 10 43
10 55 60
11 30 60
12 20 65
13 50 35
14 30 25
15 15 10
16 30 5
17 10 20
18 5 30
19 20 40
20 15 60
21 45 65
22 45 20
23 45 10
24 55 5
25 65 35
26 65 20
27 45 30
28 35 40
29 41 37
30 64 42
31 40 60
32 31 52
33 35 69
34 53 52
35 65 55
36 63 65
37 2 60
38 20 20
39 5 5
40 60 12
41 40 25
42 42 7
43 24 12
44 23 3
45 11 14
46 6 38
47 2 48
48 8 56
49 13 52
50 6 68
51 47 47
52 49 58
53 27 43
54 37 31
55 57 29
56 63 23
57 53 12
58 32 12
59 36 26
60 21 24
61 17 34
62 12 24
63 24 58
64 27 69
65 15 77
66 62 77
67 49 73
68 67 5
69 56 39
70 37 47
71 37 56
72 57 68
73 47 16
74 44 17
75 46 13
76 49 11
77 49 42
78 53 43
79 61 52
80 57 48
81 56 37
82 55 54
83 15 47
84 14 37
85 11 31
86 16 22
87 4 18
88 28 18
89 26 52
90 26 35
91 31 67
92 15 19
93 22 22
94 18 24
95 26 27
96 25 24
97 22 27
98 25 21
99 19 21
100 20 26
101 18 18
DEMAND_SECTION
1 0 0
2 10 4
3 7 2
4 13 3
5 19 2
6 26 3
7 3 2
8 5 2
9 9 3
10 16 3
11 16 2
12 12 6
13 19 1
14 23 6
15 20 5
16 8 3
17 19 3
18 2 1
19 12 3
20 17 5
21 9 3
22 11 4
23 18 3
24 29 6
25 3 2
26 6 5
27 17 2
28 16 6
29 16 2
30 9 1
31 21 6
32 27 5
33 23 5
34 11 6
35 14 5
36 8 3
37 5 6
38 8 2
39 16 5
40 31 2
41 9 4
42 5 3
43 5 4
44 7 1
45 18 2
46 16 4
47 1 1
48 27 5
49 36 3
50 30 6
51 13 3
52 10 5
53 9 4
54 14 5
55 18 3
56 2 3
57 6 6
58 7 6
59 18 6
60 28 2
61 3 3
62 13 4
63 19 5
64 10 2
65 9 5
66 20 1
67 25 6
68 25 6
69 36 2
70 6 4
71 5 5
72 15 2
73 25 3
74 9 3
75 8 4
76 18 1
77 13 3
78 14 6
79 3 1
80 23 6
81 6 2
82 26 2
83 16 3
84 11 6
85 7 3
86 41 6
87 35 5
88 26 4
89 9 5
90 15 1
91 3 1
92 1 3
93 2 3
94 22 6
95 27 2
96 20 3
97 11 2
98 12 5
99 10 1
100 9 6
101 17 4
TYPE_CONFLICT
1 4
1 2
2 3
1 6
3 4
5 6
TIME_WINDOW_SECTION
1 0 230
2 0 204
3 0 202
4 0 197
5 149 159
6 0 199
7 99 109
8 0 198
9 95 105
10 97 107
11 124 134
12 67 77
13 0 205
14 159 169
15 32 42
16 61 71
17 75 85
18 157 167
19 87 97
20 76 86
21 126 136
22 0 201
23 97 107
24 68 78
25 153 163
26 172 182
27 0 208
28 37 47
29 39 49
30 63 73
31 71 81
32 0 202
33 141 151
34 37 47
35 0 183
36 143 153
37 41 51
38 0 198
39 83 93
40 44 54
41 85 95
42 97 107
43 31 41
44 132 142
45 69 79
46 32 42
47 117 127
48 51 61
49 0 192
50 108 118
51 0 203
52 88 98
53 0 208
54 95 105
55 140 150
56 136 146
57 130 140
58 101 111
59 200 210
60 0 202
61 162 172
62 76 86
63 58 68
64 34 44
65 73 83
66 51 61
67 127 137
68 83 93
69 142 152
70 50 60
71 182 192
72 77 87
73 0 197
74 78 88
75 149 159
76 0 192
77 73 83
78 179 189
79 96 106
80 92 102
81 182 192
82 94 104
83 0 196
84 0 198
85 101 111
86 0 196
87 94 104
88 93 103
89 74 84
90 176 186
91 95 105
92 0 194
93 18 28
94 188 198
95 0 207
96 0 205
97 0 204
98 133 143
99 0 198
100 83 93
101 185 195
SERVICE_TIME_SECTION
1 0
2 10
3 10
4 10
5 10
6 10
7 10
8 10
9 10
10 10
11 10
12 10
13 10
14 10
15 10
16 10
17 10
18 10
19 10
20 10
21 10
22 10
23 10
24 10
25 10
26 10
27 10
28 10
29 10
30 10
31 10
32 10
33 10
34 10
35 10
36 10
37 10
38 10
39 10
40 10
41 10
42 10
43 10
44 10
45 10
46 10
47 10
48 10
49 10
50 10
51 10
52 10
53 10
54 10
55 10
56 10
57 10
58 10
59 10
60 10
61 10
62 10
63 10
64 10
65 10
66 10
67 10
68 10
69 10
70 10
71 10
72 10
73 10
74 10
75 10
76 10
77 10
78 10
79 10
80 10
81 10
82 10
83 10
84 10
85 10
86 10
87 10
88 10
89 10
90 10
91 10
92 10
93 10
94 10
95 10
96 10
97 10
98 10
99 10
100 10
101 10
DEPOT_SECTION
1
-1
EOF
