NAME : RC108
COMMENT : Generated from rc108.txt
TYPE : SDVRPTW
DIMENSION : 101
EDGE_WEIGHT_TYPE : EUC_2D
CAPACITY : 30
NODE_COORD_SECTION
1 40 50
2 25 85
3 22 75
4 22 85
5 20 80
6 20 85
7 18 75
8 15 75
9 15 80
10 10 35
11 10 40
12 8 40
13 8 45
14 5 35
15 5 45
16 2 40
17 0 40
18 0 45
19 44 5
20 42 10
21 42 15
22 40 5
23 40 15
24 38 5
25 38 15
26 35 5
27 95 30
28 95 35
29 92 30
30 90 35
31 88 30
32 88 35
33 87 30
34 85 25
35 85 35
36 67 85
37 65 85
38 65 82
39 62 80
40 60 80
41 60 85
42 58 75
43 55 80
44 55 85
45 55 82
46 20 82
47 18 80
48 2 45
49 42 5
50 42 12
51 72 35
52 55 20
53 25 30
54 20 50
55 55 60
56 30 60
57 50 35
58 30 25
59 15 10
60 10 20
61 15 60
62 45 65
63 65 35
64 65 20
65 45 30
66 35 40
67 41 37
68 64 42
69 40 60
70 31 52
71 35 69
72 65 55
73 63 65
74 2 60
75 20 20
76 5 5
77 60 12
78 23 3
79 8 56
80 6 68
81 47 47
82 49 58
83 27 43
84 37 31
85 57 29
86 63 23
87 21 24
88 12 24
89 24 58
90 67 5
91 37 47
92 49 42
93 53 43
94 61 52
95 57 48
96 56 37
97 55 54
98 4 18
99 26 52
100 26 35
101 31 67
DEMAND_SECTION
1 0 0
2 20 2
3 30 5
4 10 2
5 40 4
6 20 5
7 20 3
8 20 3
9 10 4
10 20 5
11 30 3
12 40 1
13 20 1
14 10 3
15 10 5
16 20 4
17 20 4
18 20 6
19 20 6
20 40 3
21 10 6
22 10 1
23 40 2
24 30 6
25 10 3
26 20 5
27 30 1
28 20 2
29 10 2
30 10 3
31 10 2
32 20 5
33 10 4
34 10 2
35 30 6
36 20 5
37 40 3
38 10 2
39 30 5
40 10 4
41 30 5
42 20 2
43 10 2
44 20 4
45 10 1
46 10 5
47 10 6
48 10 4
49 10 1
50 10 3
51 30 6
52 19 2
53 3 6
54 5 4
55 16 5
56 16 5
57 19 4
58 23 5
59 20 6
60 19 4
61 17 4
62 9 3
63 3 5
64 6 5
65 17 2
66 16 1
67 16 6
68 9 4
69 21 1
70 27 5
71 23 3
72 14 4
73 8 5
74 5 5
75 8 6
76 16 5
77 31 3
78 7 4
79 27 4
80 30 1
81 13 2
82 10 5
83 9 5
84 14 1
85 18 6
86 2 4
87 28 6
88 13 3
89 19 1
90 25 5
91 6 1
92 13 2
93 14 3
94 3 4
95 23 3
96 6 2
97 26 1
98 35 5
99 9 5
100 15 2
101 3 2
TYPE_CONFLICT
1 4
4 5
5 6
1 6
1 3
2 4
3 4
4 6
1 5
2 3
TIME_WINDOW_SECTION
1 0 240
2 49 191
3 30 168
4 95 152
5 69 193
6 40 189
7 60 159
8 54 133
9 67 144
10 57 154
11 106 161
12 33 152
13 32 148
14 53 191
15 35 194
16 39 163
17 41 141
18 51 189
19 73 130
20 40 148
21 94 179
22 45 161
23 64 149
24 45 164
25 51 194
26 45 183
27 90 169
28 57 172
29 55 174
30 52 174
31 52 147
32 50 172
33 61 178
34 51 178
35 83 168
36 57 185
37 43 186
38 95 182
39 38 141
40 36 193
41 61 138
42 49 164
43 33 180
44 100 185
45 35 142
46 37 192
47 71 184
48 38 191
49 50 184
50 99 138
51 83 178
52 45 150
53 25 150
54 68 143
55 107 200
56 95 214
57 91 198
58 56 165
59 51 182
60 42 187
61 62 203
62 37 124
63 29 168
64 39 190
65 20 139
66 11 150
67 97 198
68 31 138
69 101 216
70 9 139
71 30 210
72 30 129
73 27 202
74 46 137
75 71 193
76 57 165
77 48 131
78 49 180
79 47 162
80 65 142
81 93 222
82 78 123
83 14 140
84 19 172
85 73 148
86 59 144
87 63 140
88 91 118
89 27 136
90 52 177
91 53 148
92 89 217
93 14 177
94 50 208
95 76 143
96 20 159
97 105 188
98 104 165
99 14 136
100 42 141
101 43 210
SERVICE_TIME_SECTION
1 0
2 10
3 10
4 10
5 10
6 10
7 10
8 10
9 10
10 10
11 10
12 10
13 10
14 10
15 10
16 10
17 10
18 10
19 10
20 10
21 10
22 10
23 10
24 10
25 10
26 10
27 10
28 10
29 10
30 10
31 10
32 10
33 10
34 10
35 10
36 10
37 10
38 10
39 10
40 10
41 10
42 10
43 10
44 10
45 10
46 10
47 10
48 10
49 10
50 10
51 10
52 10
53 10
54 10
55 10
56 10
57 10
58 10
59 10
60 10
61 10
62 10
63 10
64 10
65 10
66 10
67 10
68 10
69 10
70 10
71 10
72 10
73 10
74 10
75 10
76 10
77 10
78 10
79 10
80 10
81 10
82 10
83 10
84 10
85 10
86 10
87 10
88 10
89 10
90 10
91 10
92 10
93 10
94 10
95 10
96 10
97 10
98 10
99 10
100 10
101 10
DEPOT_SECTION
1
-1
EOF
