NAME : RC205
COMMENT : Generated from rc205.txt
TYPE : SDVRPTW
DIMENSION : 101
EDGE_WEIGHT_TYPE : EUC_2D
CAPACITY : 30
NODE_COORD_SECTION
1 40 50
2 25 85
3 22 75
4 22 85
5 20 80
6 20 85
7 18 75
8 15 75
9 15 80
10 10 35
11 10 40
12 8 40
13 8 45
14 5 35
15 5 45
16 2 40
17 0 40
18 0 45
19 44 5
20 42 10
21 42 15
22 40 5
23 40 15
24 38 5
25 38 15
26 35 5
27 95 30
28 95 35
29 92 30
30 90 35
31 88 30
32 88 35
33 87 30
34 85 25
35 85 35
36 67 85
37 65 85
38 65 82
39 62 80
40 60 80
41 60 85
42 58 75
43 55 80
44 55 85
45 55 82
46 20 82
47 18 80
48 2 45
49 42 5
50 42 12
51 72 35
52 55 20
53 25 30
54 20 50
55 55 60
56 30 60
57 50 35
58 30 25
59 15 10
60 10 20
61 15 60
62 45 65
63 65 35
64 65 20
65 45 30
66 35 40
67 41 37
68 64 42
69 40 60
70 31 52
71 35 69
72 65 55
73 63 65
74 2 60
75 20 20
76 5 5
77 60 12
78 23 3
79 8 56
80 6 68
81 47 47
82 49 58
83 27 43
84 37 31
85 57 29
86 63 23
87 21 24
88 12 24
89 24 58
90 67 5
91 37 47
92 49 42
93 53 43
94 61 52
95 57 48
96 56 37
97 55 54
98 4 18
99 26 52
100 26 35
101 31 67
DEMAND_SECTION
1 0 0
2 20 3
3 30 4
4 10 4
5 40 6
6 20 6
7 20 3
8 20 4
9 10 2
10 20 2
11 30 3
12 40 3
13 20 1
14 10 4
15 10 3
16 20 6
17 20 5
18 20 4
19 20 1
20 40 6
21 10 3
22 10 2
23 40 5
24 30 2
25 10 5
26 20 5
27 30 5
28 20 1
29 10 6
30 10 4
31 10 4
32 20 4
33 10 1
34 10 3
35 30 3
36 20 2
37 40 6
38 10 6
39 30 6
40 10 3
41 30 2
42 20 4
43 10 1
44 20 4
45 10 5
46 10 4
47 10 5
48 10 4
49 10 5
50 10 1
51 30 3
52 19 2
53 3 3
54 5 4
55 16 6
56 16 1
57 19 1
58 23 3
59 20 5
60 19 1
61 17 4
62 9 6
63 3 3
64 6 4
65 17 2
66 16 5
67 16 1
68 9 4
69 21 6
70 27 5
71 23 4
72 14 4
73 8 5
74 5 5
75 8 3
76 16 1
77 31 1
78 7 5
79 27 6
80 30 6
81 13 6
82 10 5
83 9 4
84 14 3
85 18 3
86 2 5
87 28 5
88 13 4
89 19 6
90 25 6
91 6 1
92 13 6
93 14 4
94 3 4
95 23 2
96 6 5
97 26 5
98 35 6
99 9 1
100 15 2
101 3 3
TYPE_CONFLICT
1 3
3 4
4 5
4 6
TIME_WINDOW_SECTION
1 0 960
2 431 911
3 30 510
4 291 771
5 674 734
6 40 520
7 393 502
8 120 600
9 397 457
10 401 461
11 535 622
12 225 285
13 43 523
14 683 743
15 35 366
16 204 264
17 204 425
18 698 827
19 306 483
20 199 428
21 494 699
22 45 525
23 383 486
24 231 291
25 609 872
26 821 881
27 349 829
28 138 273
29 78 339
30 132 375
31 252 359
32 50 530
33 562 799
34 71 208
35 307 787
36 655 778
37 43 186
38 377 857
39 308 368
40 46 201
41 339 438
42 377 494
43 33 166
44 531 736
45 247 307
46 37 177
47 432 665
48 38 322
49 424 904
50 460 539
51 327 807
52 273 498
53 25 505
54 405 465
55 554 767
56 629 689
57 560 673
58 342 571
59 842 902
60 42 522
61 623 884
62 214 421
63 197 257
64 39 316
65 191 310
66 11 140
67 570 681
68 298 358
69 613 730
70 187 247
71 780 930
72 191 410
73 27 507
74 240 451
75 675 735
76 57 537
77 298 358
78 794 854
79 366 483
80 382 442
81 817 942
82 332 497
83 14 494
84 19 499
85 425 485
86 164 644
87 310 507
88 389 449
89 262 377
90 611 897
91 311 526
92 457 937
93 14 74
94 789 928
95 212 692
96 20 500
97 382 862
98 516 697
99 14 494
100 338 398
101 870 930
SERVICE_TIME_SECTION
1 0
2 10
3 10
4 10
5 10
6 10
7 10
8 10
9 10
10 10
11 10
12 10
13 10
14 10
15 10
16 10
17 10
18 10
19 10
20 10
21 10
22 10
23 10
24 10
25 10
26 10
27 10
28 10
29 10
30 10
31 10
32 10
33 10
34 10
35 10
36 10
37 10
38 10
39 10
40 10
41 10
42 10
43 10
44 10
45 10
46 10
47 10
48 10
49 10
50 10
51 10
52 10
53 10
54 10
55 10
56 10
57 10
58 10
59 10
60 10
61 10
62 10
63 10
64 10
65 10
66 10
67 10
68 10
69 10
70 10
71 10
72 10
73 10
74 10
75 10
76 10
77 10
78 10
79 10
80 10
81 10
82 10
83 10
84 10
85 10
86 10
87 10
88 10
89 10
90 10
91 10
92 10
93 10
94 10
95 10
96 10
97 10
98 10
99 10
100 10
101 10
DEPOT_SECTION
1
-1
EOF
