NAME : C108
COMMENT : Generated from c108.txt
TYPE : SDVRPTW
DIMENSION : 26
EDGE_WEIGHT_TYPE : EUC_2D
CAPACITY : 30
NODE_COORD_SECTION
1 40 50
2 45 68
3 45 70
4 42 66
5 42 68
6 42 65
7 40 69
8 40 66
9 38 68
10 38 70
11 35 66
12 35 69
13 25 85
14 22 75
15 22 85
16 20 80
17 20 85
18 18 75
19 15 75
20 15 80
21 30 50
22 30 52
23 28 52
24 28 55
25 25 50
26 25 52
DEMAND_SECTION
1 0
2 10
3 30
4 10
5 10
6 10
7 20
8 20
9 20
10 10
11 10
12 10
13 20
14 30
15 10
16 40
17 40
18 20
19 20
20 10
21 10
22 20
23 20
24 10
25 10
26 40
TIME_WINDOW_SECTION
1 0 1236
2 830 1049
3 756 939
4 16 336
5 643 866
6 15 226
7 499 824
8 87 308
9 150 429
10 429 710
11 279 488
12 363 590
13 547 826
14 30 280
15 489 698
16 318 495
17 394 609
18 33 226
19 68 365
20 176 447
21 10 265
22 836 1043
23 704 991
24 664 845
25 15 333
26 88 305
SERVICE_TIME_SECTION
1 0
2 90
3 90
4 90
5 90
6 90
7 90
8 90
9 90
10 90
11 90
12 90
13 90
14 90
15 90
16 90
17 90
18 90
19 90
20 90
21 90
22 90
23 90
24 90
25 90
26 90
DEPOT_SECTION
1
-1
EOF
