NAME : R110
COMMENT : Generated from r110.txt
TYPE : SDVRPTW
DIMENSION : 26
EDGE_WEIGHT_TYPE : EUC_2D
CAPACITY : 30
NODE_COORD_SECTION
1 35 35
2 41 49
3 35 17
4 55 45
5 55 20
6 15 30
7 25 30
8 20 50
9 10 43
10 55 60
11 30 60
12 20 65
13 50 35
14 30 25
15 15 10
16 30 5
17 10 20
18 5 30
19 20 40
20 15 60
21 45 65
22 45 20
23 45 10
24 55 5
25 65 35
26 65 20
DEMAND_SECTION
1 0
2 10
3 7
4 13
5 19
6 26
7 3
8 5
9 9
10 16
11 16
12 12
13 19
14 23
15 20
16 8
17 19
18 2
19 12
20 17
21 9
22 11
23 18
24 29
25 3
26 6
TIME_WINDOW_SECTION
1 0 230
2 130 201
3 20 89
4 106 135
5 71 195
6 20 107
7 54 153
8 66 105
9 61 138
10 53 150
11 101 156
12 33 152
13 38 97
14 70 208
15 32 137
16 30 154
17 54 105
18 51 189
19 77 106
20 53 108
21 109 152
22 37 96
23 59 144
24 36 155
25 118 190
26 47 186
SERVICE_TIME_SECTION
1 0
2 10
3 10
4 10
5 10
6 10
7 10
8 10
9 10
10 10
11 10
12 10
13 10
14 10
15 10
16 10
17 10
18 10
19 10
20 10
21 10
22 10
23 10
24 10
25 10
26 10
DEPOT_SECTION
1
-1
EOF
