NAME : C107
COMMENT : Generated from c107.txt
TYPE : SDVRPTW
DIMENSION : 101
EDGE_WEIGHT_TYPE : EUC_2D
CAPACITY : 30
NODE_COORD_SECTION
1 40 50
2 45 68
3 45 70
4 42 66
5 42 68
6 42 65
7 40 69
8 40 66
9 38 68
10 38 70
11 35 66
12 35 69
13 25 85
14 22 75
15 22 85
16 20 80
17 20 85
18 18 75
19 15 75
20 15 80
21 30 50
22 30 52
23 28 52
24 28 55
25 25 50
26 25 52
27 25 55
28 23 52
29 23 55
30 20 50
31 20 55
32 10 35
33 10 40
34 8 40
35 8 45
36 5 35
37 5 45
38 2 40
39 0 40
40 0 45
41 35 30
42 35 32
43 33 32
44 33 35
45 32 30
46 30 30
47 30 32
48 30 35
49 28 30
50 28 35
51 26 32
52 25 30
53 25 35
54 44 5
55 42 10
56 42 15
57 40 5
58 40 15
59 38 5
60 38 15
61 35 5
62 50 30
63 50 35
64 50 40
65 48 30
66 48 40
67 47 35
68 47 40
69 45 30
70 45 35
71 95 30
72 95 35
73 53 30
74 92 30
75 53 35
76 45 65
77 90 35
78 88 30
79 88 35
80 87 30
81 85 25
82 85 35
83 75 55
84 72 55
85 70 58
86 68 60
87 66 55
88 65 55
89 65 60
90 63 58
91 60 55
92 60 60
93 67 85
94 65 85
95 65 82
96 62 80
97 60 80
98 60 85
99 58 75
100 55 80
101 55 85
DEMAND_SECTION
1 0 0
2 10 1
3 30 3
4 10 3
5 10 3
6 10 3
7 20 1
8 20 2
9 20 2
10 10 3
11 10 1
12 10 3
13 20 2
14 30 3
15 10 2
16 40 1
17 40 2
18 20 3
19 20 1
20 10 1
21 10 3
22 20 1
23 20 1
24 10 1
25 10 1
26 40 3
27 10 2
28 10 2
29 20 1
30 10 2
31 10 3
32 20 1
33 30 1
34 40 3
35 20 1
36 10 2
37 10 1
38 20 1
39 30 3
40 20 3
41 10 1
42 10 3
43 20 3
44 10 2
45 10 2
46 10 3
47 30 1
48 10 2
49 10 3
50 10 3
51 10 1
52 10 3
53 10 2
54 20 3
55 40 3
56 10 1
57 30 2
58 40 2
59 30 3
60 10 2
61 20 1
62 10 2
63 20 3
64 50 3
65 10 2
66 10 2
67 10 2
68 10 2
69 10 2
70 10 2
71 30 3
72 20 2
73 10 1
74 10 2
75 50 2
76 20 2
77 10 1
78 10 3
79 20 3
80 10 3
81 10 2
82 30 3
83 20 3
84 10 1
85 20 2
86 30 1
87 10 3
88 20 2
89 30 1
90 10 1
91 10 2
92 10 2
93 20 1
94 40 2
95 10 1
96 30 2
97 10 1
98 30 2
99 20 2
100 10 1
101 20 1
TIME_WINDOW_SECTION
1 0 1236
2 850 1030
3 758 938
4 16 196
5 665 845
6 15 195
7 572 752
8 108 288
9 200 380
10 480 660
11 294 474
12 387 567
13 597 777
14 30 210
15 504 684
16 317 497
17 412 592
18 34 214
19 127 307
20 222 402
21 10 190
22 850 1030
23 758 938
24 665 845
25 15 195
26 107 287
27 572 752
28 199 379
29 480 660
30 292 472
31 387 567
32 129 309
33 31 211
34 33 213
35 694 874
36 224 404
37 601 781
38 319 499
39 411 591
40 506 686
41 203 383
42 111 291
43 19 199
44 16 196
45 296 476
46 481 661
47 389 569
48 947 1127
49 573 753
50 944 1124
51 758 938
52 666 846
53 851 1031
54 227 407
55 132 312
56 37 217
57 321 501
58 35 215
59 413 593
60 606 786
61 506 686
62 481 661
63 200 380
64 105 285
65 573 753
66 13 193
67 761 941
68 12 192
69 666 846
70 853 1033
71 332 512
72 237 417
73 388 568
74 425 605
75 293 473
76 943 1123
77 142 322
78 519 699
79 50 230
80 610 790
81 705 885
82 47 227
83 305 485
84 212 392
85 401 581
86 494 674
87 116 296
88 25 205
89 587 767
90 680 860
91 20 200
92 773 953
93 315 495
94 407 587
95 221 401
96 128 308
97 36 216
98 502 682
99 30 210
100 692 872
101 597 777
SERVICE_TIME_SECTION
1 0
2 90
3 90
4 90
5 90
6 90
7 90
8 90
9 90
10 90
11 90
12 90
13 90
14 90
15 90
16 90
17 90
18 90
19 90
20 90
21 90
22 90
23 90
24 90
25 90
26 90
27 90
28 90
29 90
30 90
31 90
32 90
33 90
34 90
35 90
36 90
37 90
38 90
39 90
40 90
41 90
42 90
43 90
44 90
45 90
46 90
47 90
48 90
49 90
50 90
51 90
52 90
53 90
54 90
55 90
56 90
57 90
58 90
59 90
60 90
61 90
62 90
63 90
64 90
65 90
66 90
67 90
68 90
69 90
70 90
71 90
72 90
73 90
74 90
75 90
76 90
77 90
78 90
79 90
80 90
81 90
82 90
83 90
84 90
85 90
86 90
87 90
88 90
89 90
90 90
91 90
92 90
93 90
94 90
95 90
96 90
97 90
98 90
99 90
100 90
101 90
DEPOT_SECTION
1
-1
EOF
