NAME : R201
COMMENT : Generated from r201.txt
TYPE : SDVRPTW
DIMENSION : 101
EDGE_WEIGHT_TYPE : EUC_2D
CAPACITY : 30
NODE_COORD_SECTION
1 35 35
2 41 49
3 35 17
4 55 45
5 55 20
6 15 30
7 25 30
8 20 50
9 10 43
10 55 60
11 30 60
12 20 65
13 50 35
14 30 25
15 15 10
16 30 5
17 10 20
18 5 30
19 20 40
20 15 60
21 45 65
22 45 20
23 45 10
24 55 5
25 65 35
26 65 20
27 45 30
28 35 40
29 41 37
30 64 42
31 40 60
32 31 52
33 35 69
34 53 52
35 65 55
36 63 65
37 2 60
38 20 20
39 5 5
40 60 12
41 40 25
42 42 7
43 24 12
44 23 3
45 11 14
46 6 38
47 2 48
48 8 56
49 13 52
50 6 68
51 47 47
52 49 58
53 27 43
54 37 31
55 57 29
56 63 23
57 53 12
58 32 12
59 36 26
60 21 24
61 17 34
62 12 24
63 24 58
64 27 69
65 15 77
66 62 77
67 49 73
68 67 5
69 56 39
70 37 47
71 37 56
72 57 68
73 47 16
74 44 17
75 46 13
76 49 11
77 49 42
78 53 43
79 61 52
80 57 48
81 56 37
82 55 54
83 15 47
84 14 37
85 11 31
86 16 22
87 4 18
88 28 18
89 26 52
90 26 35
91 31 67
92 15 19
93 22 22
94 18 24
95 26 27
96 25 24
97 22 27
98 25 21
99 19 21
100 20 26
101 18 18
DEMAND_SECTION
1 0 0
2 10 1
3 7 2
4 13 3
5 19 2
6 26 2
7 3 1
8 5 1
9 9 3
10 16 2
11 16 2
12 12 1
13 19 1
14 23 1
15 20 3
16 8 3
17 19 2
18 2 2
19 12 2
20 17 2
21 9 3
22 11 3
23 18 3
24 29 1
25 3 2
26 6 3
27 17 2
28 16 3
29 16 2
30 9 3
31 21 3
32 27 3
33 23 1
34 11 3
35 14 2
36 8 1
37 5 2
38 8 3
39 16 1
40 31 2
41 9 1
42 5 1
43 5 3
44 7 3
45 18 1
46 16 1
47 1 1
48 27 3
49 36 2
50 30 1
51 13 2
52 10 3
53 9 1
54 14 2
55 18 1
56 2 1
57 6 1
58 7 3
59 18 3
60 28 3
61 3 3
62 13 3
63 19 1
64 10 1
65 9 3
66 20 3
67 25 2
68 25 3
69 36 2
70 6 3
71 5 2
72 15 3
73 25 2
74 9 3
75 8 3
76 18 3
77 13 2
78 14 3
79 3 1
80 23 2
81 6 1
82 26 1
83 16 1
84 11 1
85 7 3
86 41 1
87 35 3
88 26 1
89 9 1
90 15 2
91 3 3
92 1 1
93 2 3
94 22 1
95 27 2
96 20 2
97 11 2
98 12 3
99 10 1
100 9 2
101 17 1
TIME_WINDOW_SECTION
1 0 1000
2 707 848
3 143 282
4 527 584
5 678 801
6 34 209
7 415 514
8 331 410
9 404 481
10 400 497
11 577 632
12 206 325
13 228 345
14 690 827
15 32 243
16 175 300
17 272 373
18 733 870
19 377 434
20 269 378
21 581 666
22 214 331
23 409 494
24 206 325
25 704 847
26 817 956
27 588 667
28 104 255
29 114 255
30 190 313
31 259 354
32 152 275
33 660 777
34 45 200
35 529 614
36 686 813
37 41 208
38 606 693
39 302 405
40 33 224
41 360 437
42 396 511
43 25 172
44 620 705
45 233 340
46 29 189
47 515 628
48 85 250
49 773 906
50 501 540
51 547 642
52 348 453
53 174 299
54 414 489
55 641 734
56 620 739
57 585 692
58 421 530
59 849 980
60 17 229
61 721 862
62 290 377
63 163 302
64 34 191
65 214 333
66 49 188
67 592 693
68 294 401
69 637 752
70 162 293
71 788 968
72 268 367
73 31 208
74 308 399
75 681 802
76 236 345
77 290 373
78 817 952
79 384 499
80 388 465
81 839 968
82 411 456
83 162 289
84 96 249
85 436 511
86 376 461
87 388 465
88 420 447
89 279 388
90 755 920
91 392 487
92 739 866
93 18 181
94 811 969
95 436 503
96 92 231
97 607 690
98 612 673
99 183 306
100 333 432
101 798 965
SERVICE_TIME_SECTION
1 0
2 10
3 10
4 10
5 10
6 10
7 10
8 10
9 10
10 10
11 10
12 10
13 10
14 10
15 10
16 10
17 10
18 10
19 10
20 10
21 10
22 10
23 10
24 10
25 10
26 10
27 10
28 10
29 10
30 10
31 10
32 10
33 10
34 10
35 10
36 10
37 10
38 10
39 10
40 10
41 10
42 10
43 10
44 10
45 10
46 10
47 10
48 10
49 10
50 10
51 10
52 10
53 10
54 10
55 10
56 10
57 10
58 10
59 10
60 10
61 10
62 10
63 10
64 10
65 10
66 10
67 10
68 10
69 10
70 10
71 10
72 10
73 10
74 10
75 10
76 10
77 10
78 10
79 10
80 10
81 10
82 10
83 10
84 10
85 10
86 10
87 10
88 10
89 10
90 10
91 10
92 10
93 10
94 10
95 10
96 10
97 10
98 10
99 10
100 10
101 10
DEPOT_SECTION
1
-1
EOF
