NAME : R208
COMMENT : Generated from r208.txt
TYPE : SDVRPTW
DIMENSION : 101
EDGE_WEIGHT_TYPE : EUC_2D
CAPACITY : 30
NODE_COORD_SECTION
1 35 35
2 41 49
3 35 17
4 55 45
5 55 20
6 15 30
7 25 30
8 20 50
9 10 43
10 55 60
11 30 60
12 20 65
13 50 35
14 30 25
15 15 10
16 30 5
17 10 20
18 5 30
19 20 40
20 15 60
21 45 65
22 45 20
23 45 10
24 55 5
25 65 35
26 65 20
27 45 30
28 35 40
29 41 37
30 64 42
31 40 60
32 31 52
33 35 69
34 53 52
35 65 55
36 63 65
37 2 60
38 20 20
39 5 5
40 60 12
41 40 25
42 42 7
43 24 12
44 23 3
45 11 14
46 6 38
47 2 48
48 8 56
49 13 52
50 6 68
51 47 47
52 49 58
53 27 43
54 37 31
55 57 29
56 63 23
57 53 12
58 32 12
59 36 26
60 21 24
61 17 34
62 12 24
63 24 58
64 27 69
65 15 77
66 62 77
67 49 73
68 67 5
69 56 39
70 37 47
71 37 56
72 57 68
73 47 16
74 44 17
75 46 13
76 49 11
77 49 42
78 53 43
79 61 52
80 57 48
81 56 37
82 55 54
83 15 47
84 14 37
85 11 31
86 16 22
87 4 18
88 28 18
89 26 52
90 26 35
91 31 67
92 15 19
93 22 22
94 18 24
95 26 27
96 25 24
97 22 27
98 25 21
99 19 21
100 20 26
101 18 18
DEMAND_SECTION
1 0 0
2 10 3
3 7 3
4 13 3
5 19 3
6 26 3
7 3 2
8 5 1
9 9 2
10 16 1
11 16 2
12 12 2
13 19 3
14 23 1
15 20 1
16 8 3
17 19 2
18 2 1
19 12 1
20 17 1
21 9 2
22 11 2
23 18 2
24 29 1
25 3 1
26 6 3
27 17 2
28 16 2
29 16 3
30 9 1
31 21 2
32 27 3
33 23 3
34 11 1
35 14 1
36 8 2
37 5 1
38 8 1
39 16 3
40 31 1
41 9 2
42 5 2
43 5 2
44 7 1
45 18 1
46 16 3
47 1 2
48 27 3
49 36 1
50 30 2
51 13 2
52 10 2
53 9 1
54 14 2
55 18 3
56 2 3
57 6 2
58 7 3
59 18 1
60 28 1
61 3 2
62 13 2
63 19 2
64 10 3
65 9 3
66 20 1
67 25 3
68 25 3
69 36 3
70 6 3
71 5 2
72 15 3
73 25 1
74 9 1
75 8 2
76 18 2
77 13 1
78 14 3
79 3 3
80 23 2
81 6 2
82 26 2
83 16 2
84 11 3
85 7 3
86 41 1
87 35 3
88 26 3
89 9 3
90 15 1
91 3 2
92 1 1
93 2 3
94 22 1
95 27 3
96 20 3
97 11 2
98 12 2
99 10 3
100 9 3
101 17 1
TIME_WINDOW_SECTION
1 0 1000
2 0 974
3 0 972
4 0 967
5 620 860
6 0 969
7 0 978
8 0 968
9 323 563
10 329 569
11 0 964
12 146 386
13 0 975
14 639 879
15 0 957
16 118 358
17 0 960
18 0 959
19 0 974
20 0 957
21 0 958
22 0 971
23 0 963
24 146 386
25 0 960
26 716 956
27 0 978
28 0 985
29 0 983
30 0 960
31 0 964
32 0 972
33 0 956
34 0 965
35 0 953
36 0 948
37 0 948
38 0 968
39 234 474
40 0 956
41 0 978
42 0 961
43 0 964
44 0 955
45 167 407
46 0 960
47 0 954
48 0 955
49 0 962
50 0 946
51 0 973
52 0 963
53 0 978
54 332 572
55 0 967
56 560 800
57 0 960
58 0 966
59 740 980
60 0 972
61 0 971
62 0 964
63 113 353
64 0 955
65 0 943
66 0 940
67 0 949
68 228 468
69 0 968
70 108 348
71 0 968
72 0 950
73 0 967
74 0 969
75 622 862
76 0 962
77 212 452
78 730 970
79 0 958
80 307 547
81 0 968
82 0 962
83 0 966
84 0 968
85 354 594
86 0 966
87 0 954
88 314 554
89 0 970
90 0 981
91 0 957
92 0 964
93 18 258
94 0 969
95 0 977
96 0 975
97 0 974
98 0 972
99 0 968
100 263 503
101 725 965
SERVICE_TIME_SECTION
1 0
2 10
3 10
4 10
5 10
6 10
7 10
8 10
9 10
10 10
11 10
12 10
13 10
14 10
15 10
16 10
17 10
18 10
19 10
20 10
21 10
22 10
23 10
24 10
25 10
26 10
27 10
28 10
29 10
30 10
31 10
32 10
33 10
34 10
35 10
36 10
37 10
38 10
39 10
40 10
41 10
42 10
43 10
44 10
45 10
46 10
47 10
48 10
49 10
50 10
51 10
52 10
53 10
54 10
55 10
56 10
57 10
58 10
59 10
60 10
61 10
62 10
63 10
64 10
65 10
66 10
67 10
68 10
69 10
70 10
71 10
72 10
73 10
74 10
75 10
76 10
77 10
78 10
79 10
80 10
81 10
82 10
83 10
84 10
85 10
86 10
87 10
88 10
89 10
90 10
91 10
92 10
93 10
94 10
95 10
96 10
97 10
98 10
99 10
100 10
101 10
DEPOT_SECTION
1
-1
EOF
