NAME : RC102
COMMENT : Generated from rc102.txt
TYPE : SDVRPTW
DIMENSION : 101
EDGE_WEIGHT_TYPE : EUC_2D
CAPACITY : 30
NODE_COORD_SECTION
1 40 50
2 25 85
3 22 75
4 22 85
5 20 80
6 20 85
7 18 75
8 15 75
9 15 80
10 10 35
11 10 40
12 8 40
13 8 45
14 5 35
15 5 45
16 2 40
17 0 40
18 0 45
19 44 5
20 42 10
21 42 15
22 40 5
23 40 15
24 38 5
25 38 15
26 35 5
27 95 30
28 95 35
29 92 30
30 90 35
31 88 30
32 88 35
33 87 30
34 85 25
35 85 35
36 67 85
37 65 85
38 65 82
39 62 80
40 60 80
41 60 85
42 58 75
43 55 80
44 55 85
45 55 82
46 20 82
47 18 80
48 2 45
49 42 5
50 42 12
51 72 35
52 55 20
53 25 30
54 20 50
55 55 60
56 30 60
57 50 35
58 30 25
59 15 10
60 10 20
61 15 60
62 45 65
63 65 35
64 65 20
65 45 30
66 35 40
67 41 37
68 64 42
69 40 60
70 31 52
71 35 69
72 65 55
73 63 65
74 2 60
75 20 20
76 5 5
77 60 12
78 23 3
79 8 56
80 6 68
81 47 47
82 49 58
83 27 43
84 37 31
85 57 29
86 63 23
87 21 24
88 12 24
89 24 58
90 67 5
91 37 47
92 49 42
93 53 43
94 61 52
95 57 48
96 56 37
97 55 54
98 4 18
99 26 52
100 26 35
101 31 67
DEMAND_SECTION
1 0 0
2 20 2
3 30 2
4 10 2
5 40 1
6 20 3
7 20 1
8 20 3
9 10 2
10 20 3
11 30 1
12 40 3
13 20 2
14 10 2
15 10 2
16 20 2
17 20 1
18 20 3
19 20 2
20 40 2
21 10 3
22 10 2
23 40 2
24 30 2
25 10 2
26 20 2
27 30 2
28 20 2
29 10 2
30 10 2
31 10 1
32 20 3
33 10 3
34 10 2
35 30 1
36 20 2
37 40 2
38 10 3
39 30 2
40 10 3
41 30 1
42 20 2
43 10 1
44 20 2
45 10 1
46 10 2
47 10 3
48 10 3
49 10 1
50 10 1
51 30 2
52 19 3
53 3 1
54 5 3
55 16 3
56 16 3
57 19 3
58 23 3
59 20 2
60 19 2
61 17 2
62 9 3
63 3 2
64 6 3
65 17 3
66 16 3
67 16 3
68 9 1
69 21 3
70 27 1
71 23 2
72 14 2
73 8 2
74 5 2
75 8 2
76 16 1
77 31 3
78 7 3
79 27 2
80 30 3
81 13 2
82 10 2
83 9 2
84 14 3
85 18 1
86 2 1
87 28 3
88 13 3
89 19 1
90 25 3
91 6 1
92 13 3
93 14 1
94 3 2
95 23 3
96 6 1
97 26 3
98 35 1
99 9 2
100 15 3
101 3 2
TIME_WINDOW_SECTION
1 0 240
2 0 191
3 0 199
4 0 190
5 141 171
6 0 189
7 95 125
8 0 194
9 91 121
10 91 121
11 119 149
12 59 89
13 0 197
14 142 172
15 35 65
16 58 88
17 72 102
18 149 179
19 87 117
20 72 102
21 122 152
22 0 185
23 92 122
24 65 95
25 148 178
26 154 184
27 0 171
28 62 92
29 62 92
30 67 97
31 74 104
32 0 179
33 131 161
34 51 81
35 0 182
36 139 169
37 43 73
38 0 189
39 75 105
40 37 67
41 85 115
42 92 122
43 33 63
44 128 158
45 64 94
46 37 67
47 113 143
48 45 75
49 0 184
50 104 134
51 0 194
52 83 113
53 0 205
54 91 121
55 139 169
56 140 170
57 130 160
58 96 126
59 152 182
60 0 187
61 155 185
62 66 96
63 52 82
64 39 69
65 53 83
66 11 41
67 133 163
68 70 100
69 144 174
70 41 71
71 180 210
72 65 95
73 0 202
74 77 107
75 141 171
76 0 172
77 75 105
78 150 180
79 90 120
80 89 119
81 192 222
82 86 116
83 0 215
84 0 210
85 96 126
86 0 194
87 87 117
88 90 120
89 67 97
90 144 174
91 86 116
92 0 217
93 14 44
94 178 208
95 0 212
96 0 209
97 0 214
98 120 150
99 0 215
100 77 107
101 180 210
SERVICE_TIME_SECTION
1 0
2 10
3 10
4 10
5 10
6 10
7 10
8 10
9 10
10 10
11 10
12 10
13 10
14 10
15 10
16 10
17 10
18 10
19 10
20 10
21 10
22 10
23 10
24 10
25 10
26 10
27 10
28 10
29 10
30 10
31 10
32 10
33 10
34 10
35 10
36 10
37 10
38 10
39 10
40 10
41 10
42 10
43 10
44 10
45 10
46 10
47 10
48 10
49 10
50 10
51 10
52 10
53 10
54 10
55 10
56 10
57 10
58 10
59 10
60 10
61 10
62 10
63 10
64 10
65 10
66 10
67 10
68 10
69 10
70 10
71 10
72 10
73 10
74 10
75 10
76 10
77 10
78 10
79 10
80 10
81 10
82 10
83 10
84 10
85 10
86 10
87 10
88 10
89 10
90 10
91 10
92 10
93 10
94 10
95 10
96 10
97 10
98 10
99 10
100 10
101 10
DEPOT_SECTION
1
-1
EOF
