NAME : RC201
COMMENT : Generated from rc201.txt
TYPE : SDVRPTW
DIMENSION : 101
EDGE_WEIGHT_TYPE : EUC_2D
CAPACITY : 30
NODE_COORD_SECTION
1 40 50
2 25 85
3 22 75
4 22 85
5 20 80
6 20 85
7 18 75
8 15 75
9 15 80
10 10 35
11 10 40
12 8 40
13 8 45
14 5 35
15 5 45
16 2 40
17 0 40
18 0 45
19 44 5
20 42 10
21 42 15
22 40 5
23 40 15
24 38 5
25 38 15
26 35 5
27 95 30
28 95 35
29 92 30
30 90 35
31 88 30
32 88 35
33 87 30
34 85 25
35 85 35
36 67 85
37 65 85
38 65 82
39 62 80
40 60 80
41 60 85
42 58 75
43 55 80
44 55 85
45 55 82
46 20 82
47 18 80
48 2 45
49 42 5
50 42 12
51 72 35
52 55 20
53 25 30
54 20 50
55 55 60
56 30 60
57 50 35
58 30 25
59 15 10
60 10 20
61 15 60
62 45 65
63 65 35
64 65 20
65 45 30
66 35 40
67 41 37
68 64 42
69 40 60
70 31 52
71 35 69
72 65 55
73 63 65
74 2 60
75 20 20
76 5 5
77 60 12
78 23 3
79 8 56
80 6 68
81 47 47
82 49 58
83 27 43
84 37 31
85 57 29
86 63 23
87 21 24
88 12 24
89 24 58
90 67 5
91 37 47
92 49 42
93 53 43
94 61 52
95 57 48
96 56 37
97 55 54
98 4 18
99 26 52
100 26 35
101 31 67
DEMAND_SECTION
1 0 0
2 20 3
3 30 2
4 10 1
5 40 2
6 20 2
7 20 2
8 20 2
9 10 1
10 20 3
11 30 1
12 40 2
13 20 1
14 10 3
15 10 2
16 20 1
17 20 2
18 20 1
19 20 1
20 40 2
21 10 1
22 10 1
23 40 2
24 30 1
25 10 1
26 20 1
27 30 2
28 20 2
29 10 3
30 10 2
31 10 2
32 20 3
33 10 2
34 10 1
35 30 1
36 20 2
37 40 3
38 10 3
39 30 1
40 10 1
41 30 1
42 20 3
43 10 2
44 20 3
45 10 3
46 10 1
47 10 2
48 10 1
49 10 1
50 10 3
51 30 2
52 19 3
53 3 2
54 5 3
55 16 3
56 16 2
57 19 2
58 23 3
59 20 2
60 19 2
61 17 1
62 9 2
63 3 1
64 6 2
65 17 3
66 16 1
67 16 1
68 9 3
69 21 2
70 27 3
71 23 2
72 14 2
73 8 2
74 5 1
75 8 1
76 16 3
77 31 3
78 7 3
79 27 2
80 30 3
81 13 3
82 10 3
83 9 2
84 14 3
85 18 3
86 2 3
87 28 1
88 13 1
89 19 3
90 25 2
91 6 1
92 13 3
93 14 3
94 3 3
95 23 1
96 6 1
97 26 2
98 35 3
99 9 3
100 15 1
101 3 1
TIME_WINDOW_SECTION
1 0 960
2 673 793
3 152 272
4 471 591
5 644 764
6 73 193
7 388 508
8 300 420
9 367 487
10 371 491
11 519 639
12 195 315
13 223 343
14 653 773
15 35 155
16 174 294
17 255 375
18 703 823
19 335 455
20 254 374
21 537 657
22 215 335
23 375 495
24 201 321
25 681 801
26 784 904
27 529 649
28 146 266
29 149 269
30 194 314
31 246 366
32 165 285
33 621 741
34 80 200
35 487 607
36 657 777
37 43 163
38 557 677
39 278 398
40 64 184
41 329 449
42 376 496
43 33 153
44 574 694
45 217 337
46 37 157
47 489 609
48 105 225
49 732 852
50 440 560
51 507 627
52 326 446
53 175 295
54 375 495
55 601 721
56 599 719
57 557 677
58 397 517
59 782 902
60 42 162
61 694 814
62 258 378
63 167 287
64 39 159
65 191 311
66 11 131
67 566 686
68 268 388
69 612 732
70 157 277
71 810 930
72 241 361
73 60 180
74 286 406
75 645 765
76 232 352
77 268 388
78 764 884
79 365 485
80 352 472
81 822 942
82 355 475
83 152 272
84 105 225
85 395 515
86 344 464
87 349 469
88 359 479
89 260 380
90 713 833
91 359 479
92 719 839
93 14 134
94 808 928
95 392 512
96 100 220
97 562 682
98 547 667
99 172 292
100 308 428
101 810 930
SERVICE_TIME_SECTION
1 0
2 10
3 10
4 10
5 10
6 10
7 10
8 10
9 10
10 10
11 10
12 10
13 10
14 10
15 10
16 10
17 10
18 10
19 10
20 10
21 10
22 10
23 10
24 10
25 10
26 10
27 10
28 10
29 10
30 10
31 10
32 10
33 10
34 10
35 10
36 10
37 10
38 10
39 10
40 10
41 10
42 10
43 10
44 10
45 10
46 10
47 10
48 10
49 10
50 10
51 10
52 10
53 10
54 10
55 10
56 10
57 10
58 10
59 10
60 10
61 10
62 10
63 10
64 10
65 10
66 10
67 10
68 10
69 10
70 10
71 10
72 10
73 10
74 10
75 10
76 10
77 10
78 10
79 10
80 10
81 10
82 10
83 10
84 10
85 10
86 10
87 10
88 10
89 10
90 10
91 10
92 10
93 10
94 10
95 10
96 10
97 10
98 10
99 10
100 10
101 10
DEPOT_SECTION
1
-1
EOF
