NAME : RC207
COMMENT : Generated from rc207.txt
TYPE : SDVRPTW
DIMENSION : 101
EDGE_WEIGHT_TYPE : EUC_2D
CAPACITY : 30
NODE_COORD_SECTION
1 40 50
2 25 85
3 22 75
4 22 85
5 20 80
6 20 85
7 18 75
8 15 75
9 15 80
10 10 35
11 10 40
12 8 40
13 8 45
14 5 35
15 5 45
16 2 40
17 0 40
18 0 45
19 44 5
20 42 10
21 42 15
22 40 5
23 40 15
24 38 5
25 38 15
26 35 5
27 95 30
28 95 35
29 92 30
30 90 35
31 88 30
32 88 35
33 87 30
34 85 25
35 85 35
36 67 85
37 65 85
38 65 82
39 62 80
40 60 80
41 60 85
42 58 75
43 55 80
44 55 85
45 55 82
46 20 82
47 18 80
48 2 45
49 42 5
50 42 12
51 72 35
52 55 20
53 25 30
54 20 50
55 55 60
56 30 60
57 50 35
58 30 25
59 15 10
60 10 20
61 15 60
62 45 65
63 65 35
64 65 20
65 45 30
66 35 40
67 41 37
68 64 42
69 40 60
70 31 52
71 35 69
72 65 55
73 63 65
74 2 60
75 20 20
76 5 5
77 60 12
78 23 3
79 8 56
80 6 68
81 47 47
82 49 58
83 27 43
84 37 31
85 57 29
86 63 23
87 21 24
88 12 24
89 24 58
90 67 5
91 37 47
92 49 42
93 53 43
94 61 52
95 57 48
96 56 37
97 55 54
98 4 18
99 26 52
100 26 35
101 31 67
DEMAND_SECTION
1 0 0
2 20 1
3 30 1
4 10 2
5 40 2
6 20 3
7 20 1
8 20 1
9 10 2
10 20 3
11 30 3
12 40 1
13 20 1
14 10 2
15 10 3
16 20 3
17 20 3
18 20 3
19 20 1
20 40 3
21 10 1
22 10 2
23 40 3
24 30 2
25 10 2
26 20 3
27 30 2
28 20 3
29 10 2
30 10 2
31 10 2
32 20 1
33 10 1
34 10 2
35 30 1
36 20 3
37 40 3
38 10 1
39 30 3
40 10 2
41 30 3
42 20 1
43 10 1
44 20 2
45 10 2
46 10 1
47 10 2
48 10 2
49 10 3
50 10 2
51 30 3
52 19 3
53 3 3
54 5 1
55 16 1
56 16 2
57 19 3
58 23 2
59 20 2
60 19 1
61 17 3
62 9 3
63 3 1
64 6 3
65 17 3
66 16 2
67 16 1
68 9 2
69 21 3
70 27 3
71 23 1
72 14 1
73 8 1
74 5 2
75 8 1
76 16 2
77 31 2
78 7 2
79 27 2
80 30 2
81 13 3
82 10 1
83 9 2
84 14 2
85 18 2
86 2 2
87 28 1
88 13 3
89 19 1
90 25 2
91 6 1
92 13 1
93 14 3
94 3 2
95 23 3
96 6 1
97 26 3
98 35 1
99 9 3
100 15 1
101 3 1
TIME_WINDOW_SECTION
1 0 960
2 591 874
3 73 350
4 473 588
5 418 913
6 40 390
7 249 646
8 281 438
9 272 581
10 236 625
11 470 687
12 33 510
13 166 399
14 359 911
15 35 457
16 39 538
17 214 415
18 359 909
19 338 451
20 205 422
21 511 682
22 158 391
23 263 606
24 45 522
25 598 883
26 348 904
27 509 668
28 57 664
29 68 349
30 131 376
31 114 497
32 102 347
33 564 797
34 51 673
35 462 631
36 396 905
37 43 712
38 530 703
39 131 544
40 36 800
41 233 544
42 207 664
43 33 624
44 549 718
45 62 491
46 37 677
47 435 662
48 38 366
49 636 904
50 423 576
51 471 662
52 281 490
53 109 360
54 284 585
55 568 753
56 421 896
57 404 829
58 347 566
59 380 902
60 42 466
61 613 894
62 230 405
63 29 587
64 39 353
65 20 497
66 11 570
67 423 828
68 112 543
69 441 902
70 9 532
71 211 930
72 201 400
73 27 382
74 255 436
75 427 913
76 183 400
77 162 493
78 360 900
79 195 654
80 258 565
81 426 942
82 369 460
83 85 338
84 19 326
85 304 605
86 318 489
87 332 485
88 365 472
89 100 539
90 565 897
91 324 513
92 651 906
93 14 669
94 298 928
95 385 518
96 20 299
97 538 705
98 546 667
99 109 354
100 170 565
101 262 930
SERVICE_TIME_SECTION
1 0
2 10
3 10
4 10
5 10
6 10
7 10
8 10
9 10
10 10
11 10
12 10
13 10
14 10
15 10
16 10
17 10
18 10
19 10
20 10
21 10
22 10
23 10
24 10
25 10
26 10
27 10
28 10
29 10
30 10
31 10
32 10
33 10
34 10
35 10
36 10
37 10
38 10
39 10
40 10
41 10
42 10
43 10
44 10
45 10
46 10
47 10
48 10
49 10
50 10
51 10
52 10
53 10
54 10
55 10
56 10
57 10
58 10
59 10
60 10
61 10
62 10
63 10
64 10
65 10
66 10
67 10
68 10
69 10
70 10
71 10
72 10
73 10
74 10
75 10
76 10
77 10
78 10
79 10
80 10
81 10
82 10
83 10
84 10
85 10
86 10
87 10
88 10
89 10
90 10
91 10
92 10
93 10
94 10
95 10
96 10
97 10
98 10
99 10
100 10
101 10
DEPOT_SECTION
1
-1
EOF
