NAME : RC204
COMMENT : Generated from rc204.txt
TYPE : SDVRPTW
DIMENSION : 101
EDGE_WEIGHT_TYPE : EUC_2D
CAPACITY : 30
NODE_COORD_SECTION
1 40 50
2 25 85
3 22 75
4 22 85
5 20 80
6 20 85
7 18 75
8 15 75
9 15 80
10 10 35
11 10 40
12 8 40
13 8 45
14 5 35
15 5 45
16 2 40
17 0 40
18 0 45
19 44 5
20 42 10
21 42 15
22 40 5
23 40 15
24 38 5
25 38 15
26 35 5
27 95 30
28 95 35
29 92 30
30 90 35
31 88 30
32 88 35
33 87 30
34 85 25
35 85 35
36 67 85
37 65 85
38 65 82
39 62 80
40 60 80
41 60 85
42 58 75
43 55 80
44 55 85
45 55 82
46 20 82
47 18 80
48 2 45
49 42 5
50 42 12
51 72 35
52 55 20
53 25 30
54 20 50
55 55 60
56 30 60
57 50 35
58 30 25
59 15 10
60 10 20
61 15 60
62 45 65
63 65 35
64 65 20
65 45 30
66 35 40
67 41 37
68 64 42
69 40 60
70 31 52
71 35 69
72 65 55
73 63 65
74 2 60
75 20 20
76 5 5
77 60 12
78 23 3
79 8 56
80 6 68
81 47 47
82 49 58
83 27 43
84 37 31
85 57 29
86 63 23
87 21 24
88 12 24
89 24 58
90 67 5
91 37 47
92 49 42
93 53 43
94 61 52
95 57 48
96 56 37
97 55 54
98 4 18
99 26 52
100 26 35
101 31 67
DEMAND_SECTION
1 0 0
2 20 1
3 30 2
4 10 2
5 40 3
6 20 2
7 20 1
8 20 2
9 10 2
10 20 3
11 30 1
12 40 3
13 20 3
14 10 2
15 10 1
16 20 2
17 20 2
18 20 2
19 20 2
20 40 1
21 10 3
22 10 2
23 40 2
24 30 2
25 10 2
26 20 2
27 30 1
28 20 2
29 10 2
30 10 2
31 10 3
32 20 3
33 10 1
34 10 3
35 30 1
36 20 2
37 40 3
38 10 2
39 30 3
40 10 3
41 30 3
42 20 1
43 10 1
44 20 1
45 10 1
46 10 1
47 10 3
48 10 1
49 10 3
50 10 3
51 30 2
52 19 1
53 3 2
54 5 1
55 16 2
56 16 2
57 19 1
58 23 3
59 20 2
60 19 1
61 17 2
62 9 3
63 3 3
64 6 1
65 17 2
66 16 3
67 16 1
68 9 3
69 21 1
70 27 2
71 23 2
72 14 3
73 8 3
74 5 2
75 8 2
76 16 1
77 31 2
78 7 3
79 27 2
80 30 2
81 13 3
82 10 1
83 9 2
84 14 1
85 18 2
86 2 2
87 28 2
88 13 2
89 19 1
90 25 2
91 6 1
92 13 2
93 14 3
94 3 3
95 23 1
96 6 2
97 26 3
98 35 3
99 9 2
100 15 1
101 3 2
TIME_WINDOW_SECTION
1 0 960
2 0 911
3 0 919
4 0 910
5 644 764
6 0 909
7 0 916
8 0 914
9 367 487
10 371 491
11 0 918
12 195 315
13 0 917
14 653 773
15 0 914
16 174 294
17 0 908
18 0 909
19 0 904
20 0 909
21 0 914
22 0 905
23 0 915
24 201 321
25 0 914
26 784 904
27 0 891
28 0 892
29 0 894
30 0 897
31 0 898
32 0 899
33 0 898
34 0 898
35 0 902
36 0 905
37 0 906
38 0 909
39 278 398
40 0 913
41 0 909
42 0 919
43 0 916
44 0 911
45 217 337
46 0 912
47 0 912
48 0 911
49 0 904
50 0 911
51 0 914
52 0 916
53 0 925
54 375 495
55 0 931
56 599 719
57 0 931
58 0 923
59 782 902
60 0 907
61 0 923
62 0 934
63 167 287
64 0 910
65 0 929
66 0 938
67 0 936
68 268 388
69 0 940
70 157 277
71 0 930
72 0 924
73 0 922
74 0 910
75 645 765
76 0 892
77 268 388
78 764 884
79 0 917
80 352 472
81 0 942
82 0 937
83 0 935
84 0 930
85 395 515
86 0 914
87 0 917
88 359 479
89 0 932
90 0 897
91 0 945
92 0 937
93 14 134
94 0 928
95 0 932
96 0 929
97 0 934
98 0 901
99 0 935
100 308 428
101 810 930
SERVICE_TIME_SECTION
1 0
2 10
3 10
4 10
5 10
6 10
7 10
8 10
9 10
10 10
11 10
12 10
13 10
14 10
15 10
16 10
17 10
18 10
19 10
20 10
21 10
22 10
23 10
24 10
25 10
26 10
27 10
28 10
29 10
30 10
31 10
32 10
33 10
34 10
35 10
36 10
37 10
38 10
39 10
40 10
41 10
42 10
43 10
44 10
45 10
46 10
47 10
48 10
49 10
50 10
51 10
52 10
53 10
54 10
55 10
56 10
57 10
58 10
59 10
60 10
61 10
62 10
63 10
64 10
65 10
66 10
67 10
68 10
69 10
70 10
71 10
72 10
73 10
74 10
75 10
76 10
77 10
78 10
79 10
80 10
81 10
82 10
83 10
84 10
85 10
86 10
87 10
88 10
89 10
90 10
91 10
92 10
93 10
94 10
95 10
96 10
97 10
98 10
99 10
100 10
101 10
DEPOT_SECTION
1
-1
EOF
