NAME : C204
COMMENT : Generated from c204.txt
TYPE : SDVRPTW
DIMENSION : 101
EDGE_WEIGHT_TYPE : EUC_2D
CAPACITY : 50
NODE_COORD_SECTION
1 40 50
2 52 75
3 45 70
4 62 69
5 60 66
6 42 65
7 16 42
8 58 70
9 34 60
10 28 70
11 35 66
12 35 69
13 25 85
14 22 75
15 22 85
16 20 80
17 20 85
18 18 75
19 15 75
20 15 80
21 30 50
22 30 56
23 28 52
24 14 66
25 25 50
26 22 66
27 8 62
28 23 52
29 4 55
30 20 50
31 20 55
32 10 35
33 10 40
34 8 40
35 8 45
36 5 35
37 5 45
38 2 40
39 0 40
40 0 45
41 36 18
42 35 32
43 33 32
44 33 35
45 32 20
46 30 30
47 34 25
48 30 35
49 36 40
50 48 20
51 26 32
52 25 30
53 25 35
54 44 5
55 42 10
56 42 15
57 40 5
58 38 15
59 38 5
60 38 10
61 35 5
62 50 30
63 50 35
64 50 40
65 48 30
66 44 25
67 47 35
68 47 40
69 42 30
70 45 35
71 95 30
72 95 35
73 53 30
74 92 30
75 53 35
76 45 65
77 90 35
78 72 45
79 78 40
80 87 30
81 85 25
82 85 35
83 75 55
84 72 55
85 70 58
86 86 46
87 66 55
88 64 46
89 65 60
90 56 64
91 60 55
92 60 60
93 67 85
94 42 58
95 65 82
96 62 80
97 62 40
98 60 85
99 58 75
100 55 80
101 55 85
DEMAND_SECTION
1 0 0
2 10 2
3 30 3
4 10 1
5 10 3
6 10 6
7 20 5
8 20 3
9 20 4
10 10 4
11 10 4
12 10 3
13 20 3
14 30 2
15 10 4
16 40 3
17 40 6
18 20 3
19 20 6
20 10 1
21 10 2
22 20 6
23 20 3
24 10 5
25 10 5
26 40 2
27 10 3
28 10 3
29 20 3
30 10 4
31 10 4
32 20 1
33 30 4
34 40 3
35 20 6
36 10 4
37 10 2
38 20 6
39 30 3
40 20 3
41 10 4
42 10 2
43 20 1
44 10 4
45 10 4
46 10 2
47 30 5
48 10 4
49 10 6
50 10 5
51 10 5
52 10 2
53 10 5
54 20 3
55 40 4
56 10 5
57 30 5
58 40 1
59 30 4
60 10 1
61 20 5
62 10 5
63 20 6
64 50 2
65 10 2
66 10 1
67 10 5
68 10 6
69 10 4
70 10 1
71 30 6
72 20 1
73 10 3
74 10 1
75 50 2
76 20 1
77 10 1
78 10 4
79 20 2
80 10 4
81 10 4
82 30 2
83 20 1
84 10 2
85 20 3
86 30 5
87 10 5
88 20 3
89 30 2
90 10 3
91 10 5
92 10 6
93 20 6
94 40 1
95 10 6
96 30 2
97 10 2
98 30 2
99 20 6
100 10 6
101 20 4
TYPE_CONFLICT
1 5
3 5
1 3
1 6
2 3
3 4
1 4
2 5
2 4
5 6
TIME_WINDOW_SECTION
1 0 3390
2 0 3272
3 0 3279
4 0 3270
5 1261 1421
6 0 3284
7 0 3274
8 0 3273
9 2887 3047
10 2601 2761
11 0 3283
12 2698 2858
13 0 3261
14 2405 2565
15 0 3260
16 2216 2376
17 0 3259
18 0 3266
19 0 3264
20 0 3260
21 0 3290
22 0 3288
23 0 3287
24 1643 1803
25 0 3285
26 2504 2664
27 0 3265
28 0 3282
29 0 3263
30 0 3280
31 0 3279
32 0 3266
33 0 3268
34 0 3266
35 0 3267
36 0 3261
37 0 3264
38 0 3260
39 1063 1223
40 0 3259
41 0 3267
42 0 3281
43 0 3280
44 0 3283
45 1913 2073
46 0 3277
47 0 3274
48 0 3281
49 0 3289
50 0 3268
51 0 3277
52 0 3275
53 0 3278
54 1256 1416
55 0 3259
56 1065 1225
57 0 3255
58 0 3264
59 1442 1602
60 0 3259
61 0 3254
62 0 3277
63 120 280
64 0 3285
65 0 3278
66 0 3274
67 0 3283
68 12 172
69 0 3279
70 680 840
71 0 3241
72 0 3242
73 0 3276
74 0 3244
75 213 373
76 0 3284
77 2131 2291
78 2900 3060
79 0 3260
80 2608 2768
81 0 3248
82 0 3252
83 0 3264
84 0 3267
85 1641 1801
86 0 3253
87 0 3273
88 3097 3257
89 0 3273
90 0 3278
91 0 3279
92 0 3277
93 694 854
94 0 3291
95 0 3259
96 0 3262
97 0 3275
98 0 3259
99 0 3269
100 407 567
101 502 662
SERVICE_TIME_SECTION
1 0
2 90
3 90
4 90
5 90
6 90
7 90
8 90
9 90
10 90
11 90
12 90
13 90
14 90
15 90
16 90
17 90
18 90
19 90
20 90
21 90
22 90
23 90
24 90
25 90
26 90
27 90
28 90
29 90
30 90
31 90
32 90
33 90
34 90
35 90
36 90
37 90
38 90
39 90
40 90
41 90
42 90
43 90
44 90
45 90
46 90
47 90
48 90
49 90
50 90
51 90
52 90
53 90
54 90
55 90
56 90
57 90
58 90
59 90
60 90
61 90
62 90
63 90
64 90
65 90
66 90
67 90
68 90
69 90
70 90
71 90
72 90
73 90
74 90
75 90
76 90
77 90
78 90
79 90
80 90
81 90
82 90
83 90
84 90
85 90
86 90
87 90
88 90
89 90
90 90
91 90
92 90
93 90
94 90
95 90
96 90
97 90
98 90
99 90
100 90
101 90
DEPOT_SECTION
1
-1
EOF
