NAME : C207
COMMENT : Generated from c207.txt
TYPE : SDVRPTW
DIMENSION : 101
EDGE_WEIGHT_TYPE : EUC_2D
CAPACITY : 50
NODE_COORD_SECTION
1 40 50
2 52 75
3 45 70
4 62 69
5 60 66
6 42 65
7 16 42
8 58 70
9 34 60
10 28 70
11 35 66
12 35 69
13 25 85
14 22 75
15 22 85
16 20 80
17 20 85
18 18 75
19 15 75
20 15 80
21 30 50
22 30 56
23 28 52
24 14 66
25 25 50
26 22 66
27 8 62
28 23 52
29 4 55
30 20 50
31 20 55
32 10 35
33 10 40
34 8 40
35 8 45
36 5 35
37 5 45
38 2 40
39 0 40
40 0 45
41 36 18
42 35 32
43 33 32
44 33 35
45 32 20
46 30 30
47 34 25
48 30 35
49 36 40
50 48 20
51 26 32
52 25 30
53 25 35
54 44 5
55 42 10
56 42 15
57 40 5
58 38 15
59 38 5
60 38 10
61 35 5
62 50 30
63 50 35
64 50 40
65 48 30
66 44 25
67 47 35
68 47 40
69 42 30
70 45 35
71 95 30
72 95 35
73 53 30
74 92 30
75 53 35
76 45 65
77 90 35
78 72 45
79 78 40
80 87 30
81 85 25
82 85 35
83 75 55
84 72 55
85 70 58
86 86 46
87 66 55
88 64 46
89 65 60
90 56 64
91 60 55
92 60 60
93 67 85
94 42 58
95 65 82
96 62 80
97 62 40
98 60 85
99 58 75
100 55 80
101 55 85
DEMAND_SECTION
1 0 0
2 10 6
3 30 5
4 10 1
5 10 3
6 10 1
7 20 5
8 20 1
9 20 4
10 10 4
11 10 6
12 10 5
13 20 3
14 30 1
15 10 4
16 40 5
17 40 4
18 20 5
19 20 5
20 10 1
21 10 2
22 20 1
23 20 2
24 10 6
25 10 5
26 40 2
27 10 4
28 10 2
29 20 5
30 10 6
31 10 1
32 20 2
33 30 2
34 40 6
35 20 6
36 10 1
37 10 1
38 20 5
39 30 6
40 20 3
41 10 6
42 10 4
43 20 1
44 10 4
45 10 3
46 10 4
47 30 1
48 10 3
49 10 3
50 10 5
51 10 6
52 10 5
53 10 3
54 20 3
55 40 4
56 10 3
57 30 2
58 40 2
59 30 4
60 10 3
61 20 3
62 10 3
63 20 3
64 50 6
65 10 3
66 10 3
67 10 2
68 10 6
69 10 3
70 10 1
71 30 2
72 20 1
73 10 3
74 10 2
75 50 6
76 20 2
77 10 2
78 10 6
79 20 6
80 10 5
81 10 1
82 30 5
83 20 2
84 10 2
85 20 6
86 30 6
87 10 3
88 20 3
89 30 6
90 10 5
91 10 3
92 10 2
93 20 2
94 40 6
95 10 4
96 30 6
97 10 2
98 30 3
99 20 4
100 10 3
101 20 2
TYPE_CONFLICT
3 5
1 4
2 5
4 6
1 5
5 6
2 4
4 5
TIME_WINDOW_SECTION
1 0 3390
2 302 479
3 157 428
4 1138 1355
5 1247 1434
6 15 208
7 209 944
8 1059 1246
9 2035 3288
10 2090 3271
11 2311 3283
12 2428 3127
13 1772 2625
14 2135 2834
15 1586 2625
16 1858 2733
17 1512 2515
18 1895 2886
19 1299 2344
20 1461 2372
21 10 963
22 2062 3288
23 12 752
24 1316 2129
25 15 532
26 2177 2990
27 1036 2213
28 17 602
29 1010 2043
30 20 948
31 63 702
32 309 1412
33 336 1009
34 234 1295
35 954 1897
36 377 1534
37 819 1846
38 494 1607
39 637 1648
40 834 1641
41 1468 2329
42 2480 3195
43 2421 3070
44 2368 2937
45 1621 2364
46 1805 2564
47 1782 2395
48 2242 2877
49 2605 3266
50 812 1281
51 1842 2901
52 1883 2676
53 2070 2859
54 1078 1593
55 998 1481
56 897 1392
57 1083 1776
58 1426 2183
59 1133 1910
60 1392 2027
61 1180 2049
62 223 738
63 18 474
64 14 360
65 246 899
66 704 1197
67 393 942
68 12 424
69 641 1070
70 534 985
71 2119 2682
72 2192 2419
73 131 644
74 2169 2818
75 87 498
76 49 346
77 2106 2315
78 2701 3258
79 2599 3164
80 2505 2870
81 2369 2816
82 2563 3002
83 1894 2115
84 1751 2072
85 1617 1824
86 1969 2248
87 1710 1921
88 2976 3275
89 1482 1769
90 1275 1594
91 2789 3279
92 1440 1621
93 646 901
94 8 258
95 708 1027
96 852 1069
97 2713 3275
98 537 816
99 948 1167
100 379 594
101 477 686
SERVICE_TIME_SECTION
1 0
2 90
3 90
4 90
5 90
6 90
7 90
8 90
9 90
10 90
11 90
12 90
13 90
14 90
15 90
16 90
17 90
18 90
19 90
20 90
21 90
22 90
23 90
24 90
25 90
26 90
27 90
28 90
29 90
30 90
31 90
32 90
33 90
34 90
35 90
36 90
37 90
38 90
39 90
40 90
41 90
42 90
43 90
44 90
45 90
46 90
47 90
48 90
49 90
50 90
51 90
52 90
53 90
54 90
55 90
56 90
57 90
58 90
59 90
60 90
61 90
62 90
63 90
64 90
65 90
66 90
67 90
68 90
69 90
70 90
71 90
72 90
73 90
74 90
75 90
76 90
77 90
78 90
79 90
80 90
81 90
82 90
83 90
84 90
85 90
86 90
87 90
88 90
89 90
90 90
91 90
92 90
93 90
94 90
95 90
96 90
97 90
98 90
99 90
100 90
101 90
DEPOT_SECTION
1
-1
EOF
