NAME : C208
COMMENT : Generated from c208.txt
TYPE : SDVRPTW
DIMENSION : 101
EDGE_WEIGHT_TYPE : EUC_2D
CAPACITY : 50
NODE_COORD_SECTION
1 40 50
2 52 75
3 45 70
4 62 69
5 60 66
6 42 65
7 16 42
8 58 70
9 34 60
10 28 70
11 35 66
12 35 69
13 25 85
14 22 75
15 22 85
16 20 80
17 20 85
18 18 75
19 15 75
20 15 80
21 30 50
22 30 56
23 28 52
24 14 66
25 25 50
26 22 66
27 8 62
28 23 52
29 4 55
30 20 50
31 20 55
32 10 35
33 10 40
34 8 40
35 8 45
36 5 35
37 5 45
38 2 40
39 0 40
40 0 45
41 36 18
42 35 32
43 33 32
44 33 35
45 32 20
46 30 30
47 34 25
48 30 35
49 36 40
50 48 20
51 26 32
52 25 30
53 25 35
54 44 5
55 42 10
56 42 15
57 40 5
58 38 15
59 38 5
60 38 10
61 35 5
62 50 30
63 50 35
64 50 40
65 48 30
66 44 25
67 47 35
68 47 40
69 42 30
70 45 35
71 95 30
72 95 35
73 53 30
74 92 30
75 53 35
76 45 65
77 90 35
78 72 45
79 78 40
80 87 30
81 85 25
82 85 35
83 75 55
84 72 55
85 70 58
86 86 46
87 66 55
88 64 46
89 65 60
90 56 64
91 60 55
92 60 60
93 67 85
94 42 58
95 65 82
96 62 80
97 62 40
98 60 85
99 58 75
100 55 80
101 55 85
DEMAND_SECTION
1 0 0
2 10 5
3 30 6
4 10 6
5 10 4
6 10 6
7 20 3
8 20 3
9 20 3
10 10 2
11 10 6
12 10 2
13 20 5
14 30 5
15 10 3
16 40 4
17 40 5
18 20 2
19 20 4
20 10 5
21 10 4
22 20 1
23 20 5
24 10 3
25 10 1
26 40 3
27 10 3
28 10 1
29 20 6
30 10 4
31 10 5
32 20 4
33 30 3
34 40 6
35 20 5
36 10 4
37 10 4
38 20 5
39 30 3
40 20 4
41 10 5
42 10 1
43 20 1
44 10 6
45 10 1
46 10 6
47 30 6
48 10 6
49 10 2
50 10 6
51 10 3
52 10 4
53 10 4
54 20 5
55 40 2
56 10 5
57 30 2
58 40 1
59 30 2
60 10 4
61 20 6
62 10 2
63 20 1
64 50 3
65 10 6
66 10 2
67 10 4
68 10 4
69 10 3
70 10 4
71 30 3
72 20 1
73 10 1
74 10 2
75 50 1
76 20 3
77 10 2
78 10 4
79 20 2
80 10 3
81 10 3
82 30 5
83 20 4
84 10 5
85 20 4
86 30 3
87 10 3
88 20 1
89 30 5
90 10 1
91 10 6
92 10 4
93 20 2
94 40 1
95 10 2
96 30 2
97 10 6
98 30 1
99 20 1
100 10 2
101 20 3
TYPE_CONFLICT
2 3
1 2
2 5
2 4
1 4
4 6
1 3
3 4
4 5
1 5
TIME_WINDOW_SECTION
1 0 3390
2 71 711
3 20 660
4 927 1567
5 1021 1661
6 15 655
7 257 897
8 833 1473
9 2647 3287
10 2361 3001
11 2551 3191
12 2458 3098
13 1879 2519
14 2165 2805
15 1786 2426
16 1976 2616
17 1694 2334
18 2071 2711
19 1502 2142
20 1597 2237
21 10 650
22 2648 3288
23 12 652
24 1403 2043
25 15 655
26 2264 2904
27 1305 1945
28 17 657
29 1207 1847
30 158 798
31 63 703
32 541 1181
33 353 993
34 445 1085
35 1106 1746
36 636 1276
37 1013 1653
38 731 1371
39 823 1463
40 918 1558
41 1579 2219
42 2518 3158
43 2426 3066
44 2333 2973
45 1673 2313
46 1865 2505
47 1769 2409
48 2240 2880
49 2616 3256
50 727 1367
51 2052 2692
52 1960 2600
53 2145 2785
54 1016 1656
55 920 1560
56 825 1465
57 1110 1750
58 1485 2125
59 1202 1842
60 1390 2030
61 1295 1935
62 161 801
63 18 658
64 14 654
65 253 893
66 631 1271
67 348 988
68 12 652
69 536 1176
70 440 1080
71 2081 2721
72 1986 2626
73 68 708
74 2174 2814
75 19 659
76 15 655
77 1891 2531
78 2627 3267
79 2562 3202
80 2368 3008
81 2273 2913
82 2463 3103
83 1685 2325
84 1592 2232
85 1401 2041
86 1789 2429
87 1496 2136
88 2635 3275
89 1306 1946
90 1115 1755
91 2639 3279
92 1211 1851
93 454 1094
94 8 648
95 548 1188
96 641 1281
97 2635 3275
98 357 997
99 738 1378
100 167 807
101 262 902
SERVICE_TIME_SECTION
1 0
2 90
3 90
4 90
5 90
6 90
7 90
8 90
9 90
10 90
11 90
12 90
13 90
14 90
15 90
16 90
17 90
18 90
19 90
20 90
21 90
22 90
23 90
24 90
25 90
26 90
27 90
28 90
29 90
30 90
31 90
32 90
33 90
34 90
35 90
36 90
37 90
38 90
39 90
40 90
41 90
42 90
43 90
44 90
45 90
46 90
47 90
48 90
49 90
50 90
51 90
52 90
53 90
54 90
55 90
56 90
57 90
58 90
59 90
60 90
61 90
62 90
63 90
64 90
65 90
66 90
67 90
68 90
69 90
70 90
71 90
72 90
73 90
74 90
75 90
76 90
77 90
78 90
79 90
80 90
81 90
82 90
83 90
84 90
85 90
86 90
87 90
88 90
89 90
90 90
91 90
92 90
93 90
94 90
95 90
96 90
97 90
98 90
99 90
100 90
101 90
DEPOT_SECTION
1
-1
EOF
