NAME : R109
COMMENT : Generated from r109.txt
TYPE : SDVRPTW
DIMENSION : 101
EDGE_WEIGHT_TYPE : EUC_2D
CAPACITY : 50
NODE_COORD_SECTION
1 35 35
2 41 49
3 35 17
4 55 45
5 55 20
6 15 30
7 25 30
8 20 50
9 10 43
10 55 60
11 30 60
12 20 65
13 50 35
14 30 25
15 15 10
16 30 5
17 10 20
18 5 30
19 20 40
20 15 60
21 45 65
22 45 20
23 45 10
24 55 5
25 65 35
26 65 20
27 45 30
28 35 40
29 41 37
30 64 42
31 40 60
32 31 52
33 35 69
34 53 52
35 65 55
36 63 65
37 2 60
38 20 20
39 5 5
40 60 12
41 40 25
42 42 7
43 24 12
44 23 3
45 11 14
46 6 38
47 2 48
48 8 56
49 13 52
50 6 68
51 47 47
52 49 58
53 27 43
54 37 31
55 57 29
56 63 23
57 53 12
58 32 12
59 36 26
60 21 24
61 17 34
62 12 24
63 24 58
64 27 69
65 15 77
66 62 77
67 49 73
68 67 5
69 56 39
70 37 47
71 37 56
72 57 68
73 47 16
74 44 17
75 46 13
76 49 11
77 49 42
78 53 43
79 61 52
80 57 48
81 56 37
82 55 54
83 15 47
84 14 37
85 11 31
86 16 22
87 4 18
88 28 18
89 26 52
90 26 35
91 31 67
92 15 19
93 22 22
94 18 24
95 26 27
96 25 24
97 22 27
98 25 21
99 19 21
100 20 26
101 18 18
DEMAND_SECTION
1 0 0
2 10 6
3 7 1
4 13 4
5 19 4
6 26 3
7 3 3
8 5 4
9 9 2
10 16 3
11 16 1
12 12 5
13 19 5
14 23 1
15 20 6
16 8 2
17 19 1
18 2 1
19 12 6
20 17 3
21 9 1
22 11 1
23 18 1
24 29 5
25 3 2
26 6 4
27 17 5
28 16 1
29 16 4
30 9 6
31 21 1
32 27 5
33 23 4
34 11 3
35 14 2
36 8 4
37 5 5
38 8 5
39 16 4
40 31 6
41 9 3
42 5 2
43 5 4
44 7 6
45 18 5
46 16 3
47 1 6
48 27 5
49 36 5
50 30 2
51 13 2
52 10 4
53 9 3
54 14 6
55 18 2
56 2 4
57 6 1
58 7 6
59 18 4
60 28 2
61 3 4
62 13 5
63 19 2
64 10 2
65 9 1
66 20 2
67 25 3
68 25 5
69 36 5
70 6 3
71 5 5
72 15 2
73 25 6
74 9 4
75 8 4
76 18 4
77 13 4
78 14 6
79 3 5
80 23 1
81 6 2
82 26 5
83 16 6
84 11 3
85 7 5
86 41 5
87 35 4
88 26 6
89 9 6
90 15 3
91 3 1
92 1 2
93 2 2
94 22 3
95 27 2
96 20 1
97 11 4
98 12 6
99 10 4
100 9 1
101 17 5
TYPE_CONFLICT
4 5
3 4
1 5
5 6
TIME_WINDOW_SECTION
1 0 230
2 133 198
3 22 87
4 98 143
5 123 184
6 20 93
7 76 131
8 61 110
9 75 124
10 74 129
11 107 150
12 42 101
13 38 97
14 131 196
15 32 114
16 35 96
17 52 107
18 124 189
19 69 114
20 52 109
21 105 156
22 37 96
23 76 127
24 43 102
25 124 190
26 121 186
27 112 161
28 8 75
29 11 76
30 37 98
31 49 102
32 24 85
33 116 175
34 24 92
35 96 147
36 116 178
37 41 112
38 113 164
39 60 115
40 33 110
41 65 114
42 72 131
43 25 91
44 111 162
45 45 102
46 29 99
47 92 151
48 34 105
49 128 192
50 93 132
51 102 155
52 64 121
53 26 87
54 75 124
55 118 171
56 111 170
57 106 163
58 77 134
59 147 210
60 17 100
61 134 199
62 55 106
63 30 95
64 34 103
65 48 107
66 49 113
67 104 159
68 59 116
69 117 176
70 23 86
71 123 198
72 54 109
73 22 96
74 56 109
75 123 184
76 45 102
77 52 103
78 136 200
79 71 130
80 72 121
81 135 198
82 78 119
83 29 90
84 21 89
85 81 130
86 70 121
87 74 123
88 79 116
89 50 107
90 139 211
91 73 126
92 132 194
93 18 88
94 129 199
95 81 128
96 14 78
97 114 165
98 115 160
99 32 93
100 60 115
101 123 195
SERVICE_TIME_SECTION
1 0
2 10
3 10
4 10
5 10
6 10
7 10
8 10
9 10
10 10
11 10
12 10
13 10
14 10
15 10
16 10
17 10
18 10
19 10
20 10
21 10
22 10
23 10
24 10
25 10
26 10
27 10
28 10
29 10
30 10
31 10
32 10
33 10
34 10
35 10
36 10
37 10
38 10
39 10
40 10
41 10
42 10
43 10
44 10
45 10
46 10
47 10
48 10
49 10
50 10
51 10
52 10
53 10
54 10
55 10
56 10
57 10
58 10
59 10
60 10
61 10
62 10
63 10
64 10
65 10
66 10
67 10
68 10
69 10
70 10
71 10
72 10
73 10
74 10
75 10
76 10
77 10
78 10
79 10
80 10
81 10
82 10
83 10
84 10
85 10
86 10
87 10
88 10
89 10
90 10
91 10
92 10
93 10
94 10
95 10
96 10
97 10
98 10
99 10
100 10
101 10
DEPOT_SECTION
1
-1
EOF
