NAME : RC107
COMMENT : Generated from rc107.txt
TYPE : SDVRPTW
DIMENSION : 101
EDGE_WEIGHT_TYPE : EUC_2D
CAPACITY : 50
NODE_COORD_SECTION
1 40 50
2 25 85
3 22 75
4 22 85
5 20 80
6 20 85
7 18 75
8 15 75
9 15 80
10 10 35
11 10 40
12 8 40
13 8 45
14 5 35
15 5 45
16 2 40
17 0 40
18 0 45
19 44 5
20 42 10
21 42 15
22 40 5
23 40 15
24 38 5
25 38 15
26 35 5
27 95 30
28 95 35
29 92 30
30 90 35
31 88 30
32 88 35
33 87 30
34 85 25
35 85 35
36 67 85
37 65 85
38 65 82
39 62 80
40 60 80
41 60 85
42 58 75
43 55 80
44 55 85
45 55 82
46 20 82
47 18 80
48 2 45
49 42 5
50 42 12
51 72 35
52 55 20
53 25 30
54 20 50
55 55 60
56 30 60
57 50 35
58 30 25
59 15 10
60 10 20
61 15 60
62 45 65
63 65 35
64 65 20
65 45 30
66 35 40
67 41 37
68 64 42
69 40 60
70 31 52
71 35 69
72 65 55
73 63 65
74 2 60
75 20 20
76 5 5
77 60 12
78 23 3
79 8 56
80 6 68
81 47 47
82 49 58
83 27 43
84 37 31
85 57 29
86 63 23
87 21 24
88 12 24
89 24 58
90 67 5
91 37 47
92 49 42
93 53 43
94 61 52
95 57 48
96 56 37
97 55 54
98 4 18
99 26 52
100 26 35
101 31 67
DEMAND_SECTION
1 0 0
2 20 2
3 30 1
4 10 1
5 40 2
6 20 5
7 20 3
8 20 1
9 10 1
10 20 1
11 30 5
12 40 3
13 20 2
14 10 5
15 10 2
16 20 6
17 20 4
18 20 1
19 20 4
20 40 3
21 10 5
22 10 3
23 40 6
24 30 2
25 10 2
26 20 4
27 30 1
28 20 5
29 10 4
30 10 5
31 10 5
32 20 2
33 10 4
34 10 3
35 30 3
36 20 1
37 40 5
38 10 1
39 30 1
40 10 2
41 30 1
42 20 3
43 10 4
44 20 6
45 10 5
46 10 5
47 10 4
48 10 5
49 10 5
50 10 5
51 30 3
52 19 4
53 3 6
54 5 6
55 16 6
56 16 3
57 19 2
58 23 2
59 20 6
60 19 4
61 17 1
62 9 3
63 3 1
64 6 1
65 17 5
66 16 2
67 16 5
68 9 5
69 21 2
70 27 2
71 23 3
72 14 4
73 8 6
74 5 1
75 8 5
76 16 3
77 31 3
78 7 2
79 27 5
80 30 1
81 13 2
82 10 2
83 9 4
84 14 1
85 18 2
86 2 5
87 28 2
88 13 3
89 19 1
90 25 6
91 6 1
92 13 6
93 14 3
94 3 2
95 23 5
96 6 5
97 26 5
98 35 6
99 9 1
100 15 1
101 3 3
TYPE_CONFLICT
5 6
1 2
4 6
1 4
2 5
3 5
1 6
3 4
TIME_WINDOW_SECTION
1 0 240
2 125 191
3 32 97
4 101 146
5 71 193
6 40 113
7 55 164
8 69 118
9 56 155
10 51 160
11 90 177
12 33 152
13 49 108
14 62 191
15 35 117
16 39 161
17 59 114
18 60 189
19 79 124
20 58 115
21 111 162
22 52 111
23 55 158
24 45 164
25 128 194
26 54 184
27 105 154
28 57 172
29 55 120
30 52 112
31 52 159
32 50 110
33 116 175
34 51 178
35 100 151
36 61 185
37 43 186
38 113 164
39 37 148
40 36 191
41 50 149
42 48 165
43 33 166
44 117 168
45 35 148
46 37 177
47 98 157
48 38 109
49 120 184
50 79 158
51 104 157
52 69 126
53 36 97
54 57 154
55 127 180
56 95 214
57 88 201
58 82 139
59 56 182
60 42 125
61 137 202
62 55 106
63 29 158
64 39 108
65 20 139
66 11 140
67 92 203
68 28 141
69 100 217
70 9 134
71 60 210
72 52 107
73 27 101
74 65 118
75 72 193
76 60 117
77 42 143
78 52 180
79 46 163
80 54 153
81 97 222
82 80 121
83 26 87
84 19 87
85 62 159
86 76 127
87 77 126
88 68 141
89 24 139
90 105 177
91 74 127
92 151 212
93 14 155
94 69 208
95 86 133
96 20 84
97 121 172
98 112 157
99 30 91
100 37 146
101 66 210
SERVICE_TIME_SECTION
1 0
2 10
3 10
4 10
5 10
6 10
7 10
8 10
9 10
10 10
11 10
12 10
13 10
14 10
15 10
16 10
17 10
18 10
19 10
20 10
21 10
22 10
23 10
24 10
25 10
26 10
27 10
28 10
29 10
30 10
31 10
32 10
33 10
34 10
35 10
36 10
37 10
38 10
39 10
40 10
41 10
42 10
43 10
44 10
45 10
46 10
47 10
48 10
49 10
50 10
51 10
52 10
53 10
54 10
55 10
56 10
57 10
58 10
59 10
60 10
61 10
62 10
63 10
64 10
65 10
66 10
67 10
68 10
69 10
70 10
71 10
72 10
73 10
74 10
75 10
76 10
77 10
78 10
79 10
80 10
81 10
82 10
83 10
84 10
85 10
86 10
87 10
88 10
89 10
90 10
91 10
92 10
93 10
94 10
95 10
96 10
97 10
98 10
99 10
100 10
101 10
DEPOT_SECTION
1
-1
EOF
