NAME : RC104
COMMENT : Generated from rc104.txt
TYPE : SDVRPTW
DIMENSION : 101
EDGE_WEIGHT_TYPE : EUC_2D
CAPACITY : 50
NODE_COORD_SECTION
1 40 50
2 25 85
3 22 75
4 22 85
5 20 80
6 20 85
7 18 75
8 15 75
9 15 80
10 10 35
11 10 40
12 8 40
13 8 45
14 5 35
15 5 45
16 2 40
17 0 40
18 0 45
19 44 5
20 42 10
21 42 15
22 40 5
23 40 15
24 38 5
25 38 15
26 35 5
27 95 30
28 95 35
29 92 30
30 90 35
31 88 30
32 88 35
33 87 30
34 85 25
35 85 35
36 67 85
37 65 85
38 65 82
39 62 80
40 60 80
41 60 85
42 58 75
43 55 80
44 55 85
45 55 82
46 20 82
47 18 80
48 2 45
49 42 5
50 42 12
51 72 35
52 55 20
53 25 30
54 20 50
55 55 60
56 30 60
57 50 35
58 30 25
59 15 10
60 10 20
61 15 60
62 45 65
63 65 35
64 65 20
65 45 30
66 35 40
67 41 37
68 64 42
69 40 60
70 31 52
71 35 69
72 65 55
73 63 65
74 2 60
75 20 20
76 5 5
77 60 12
78 23 3
79 8 56
80 6 68
81 47 47
82 49 58
83 27 43
84 37 31
85 57 29
86 63 23
87 21 24
88 12 24
89 24 58
90 67 5
91 37 47
92 49 42
93 53 43
94 61 52
95 57 48
96 56 37
97 55 54
98 4 18
99 26 52
100 26 35
101 31 67
DEMAND_SECTION
1 0 0
2 20 1
3 30 5
4 10 1
5 40 2
6 20 6
7 20 6
8 20 5
9 10 1
10 20 6
11 30 2
12 40 4
13 20 1
14 10 4
15 10 6
16 20 4
17 20 1
18 20 4
19 20 6
20 40 2
21 10 6
22 10 1
23 40 4
24 30 6
25 10 4
26 20 4
27 30 4
28 20 3
29 10 4
30 10 4
31 10 4
32 20 1
33 10 1
34 10 5
35 30 4
36 20 1
37 40 2
38 10 6
39 30 2
40 10 1
41 30 5
42 20 2
43 10 6
44 20 3
45 10 6
46 10 2
47 10 1
48 10 6
49 10 4
50 10 6
51 30 6
52 19 5
53 3 3
54 5 2
55 16 4
56 16 6
57 19 1
58 23 2
59 20 3
60 19 5
61 17 4
62 9 3
63 3 3
64 6 6
65 17 6
66 16 5
67 16 4
68 9 3
69 21 3
70 27 5
71 23 1
72 14 4
73 8 5
74 5 1
75 8 4
76 16 4
77 31 1
78 7 4
79 27 2
80 30 4
81 13 5
82 10 5
83 9 3
84 14 5
85 18 4
86 2 1
87 28 1
88 13 3
89 19 4
90 25 5
91 6 4
92 13 2
93 14 1
94 3 1
95 23 1
96 6 5
97 26 5
98 35 3
99 9 1
100 15 2
101 3 3
TYPE_CONFLICT
2 5
2 3
1 3
1 2
3 6
1 4
5 6
3 4
4 5
2 4
TIME_WINDOW_SECTION
1 0 240
2 0 191
3 0 199
4 0 190
5 141 171
6 0 189
7 0 196
8 0 194
9 91 121
10 91 121
11 0 198
12 59 89
13 0 197
14 142 172
15 0 194
16 58 88
17 0 188
18 0 189
19 0 184
20 0 189
21 0 194
22 0 185
23 0 195
24 65 95
25 0 194
26 154 184
27 0 171
28 0 172
29 0 174
30 0 177
31 0 178
32 0 179
33 0 178
34 0 178
35 0 182
36 0 185
37 0 186
38 0 189
39 75 105
40 0 193
41 0 189
42 0 199
43 0 196
44 0 191
45 64 94
46 0 192
47 0 192
48 0 191
49 0 184
50 0 191
51 0 194
52 0 196
53 0 205
54 91 121
55 0 211
56 140 170
57 0 211
58 0 203
59 152 182
60 0 187
61 0 203
62 0 214
63 52 82
64 0 190
65 0 209
66 0 218
67 0 216
68 70 100
69 0 220
70 41 71
71 0 210
72 0 204
73 0 202
74 0 190
75 141 171
76 0 172
77 75 105
78 150 180
79 0 197
80 89 119
81 0 222
82 0 217
83 0 215
84 0 210
85 96 126
86 0 194
87 0 197
88 90 120
89 0 212
90 0 177
91 0 225
92 0 217
93 14 44
94 0 208
95 0 212
96 0 209
97 0 214
98 0 181
99 0 215
100 77 107
101 180 210
SERVICE_TIME_SECTION
1 0
2 10
3 10
4 10
5 10
6 10
7 10
8 10
9 10
10 10
11 10
12 10
13 10
14 10
15 10
16 10
17 10
18 10
19 10
20 10
21 10
22 10
23 10
24 10
25 10
26 10
27 10
28 10
29 10
30 10
31 10
32 10
33 10
34 10
35 10
36 10
37 10
38 10
39 10
40 10
41 10
42 10
43 10
44 10
45 10
46 10
47 10
48 10
49 10
50 10
51 10
52 10
53 10
54 10
55 10
56 10
57 10
58 10
59 10
60 10
61 10
62 10
63 10
64 10
65 10
66 10
67 10
68 10
69 10
70 10
71 10
72 10
73 10
74 10
75 10
76 10
77 10
78 10
79 10
80 10
81 10
82 10
83 10
84 10
85 10
86 10
87 10
88 10
89 10
90 10
91 10
92 10
93 10
94 10
95 10
96 10
97 10
98 10
99 10
100 10
101 10
DEPOT_SECTION
1
-1
EOF
