NAME : RC208
COMMENT : Generated from rc208.txt
TYPE : SDVRPTW
DIMENSION : 101
EDGE_WEIGHT_TYPE : EUC_2D
CAPACITY : 50
NODE_COORD_SECTION
1 40 50
2 25 85
3 22 75
4 22 85
5 20 80
6 20 85
7 18 75
8 15 75
9 15 80
10 10 35
11 10 40
12 8 40
13 8 45
14 5 35
15 5 45
16 2 40
17 0 40
18 0 45
19 44 5
20 42 10
21 42 15
22 40 5
23 40 15
24 38 5
25 38 15
26 35 5
27 95 30
28 95 35
29 92 30
30 90 35
31 88 30
32 88 35
33 87 30
34 85 25
35 85 35
36 67 85
37 65 85
38 65 82
39 62 80
40 60 80
41 60 85
42 58 75
43 55 80
44 55 85
45 55 82
46 20 82
47 18 80
48 2 45
49 42 5
50 42 12
51 72 35
52 55 20
53 25 30
54 20 50
55 55 60
56 30 60
57 50 35
58 30 25
59 15 10
60 10 20
61 15 60
62 45 65
63 65 35
64 65 20
65 45 30
66 35 40
67 41 37
68 64 42
69 40 60
70 31 52
71 35 69
72 65 55
73 63 65
74 2 60
75 20 20
76 5 5
77 60 12
78 23 3
79 8 56
80 6 68
81 47 47
82 49 58
83 27 43
84 37 31
85 57 29
86 63 23
87 21 24
88 12 24
89 24 58
90 67 5
91 37 47
92 49 42
93 53 43
94 61 52
95 57 48
96 56 37
97 55 54
98 4 18
99 26 52
100 26 35
101 31 67
DEMAND_SECTION
1 0 0
2 20 4
3 30 1
4 10 3
5 40 2
6 20 1
7 20 5
8 20 1
9 10 5
10 20 6
11 30 3
12 40 4
13 20 1
14 10 1
15 10 5
16 20 6
17 20 4
18 20 5
19 20 2
20 40 5
21 10 6
22 10 5
23 40 2
24 30 5
25 10 4
26 20 4
27 30 3
28 20 6
29 10 6
30 10 2
31 10 2
32 20 6
33 10 4
34 10 2
35 30 6
36 20 2
37 40 6
38 10 3
39 30 2
40 10 3
41 30 5
42 20 1
43 10 1
44 20 4
45 10 2
46 10 1
47 10 1
48 10 2
49 10 5
50 10 5
51 30 1
52 19 6
53 3 1
54 5 1
55 16 1
56 16 1
57 19 4
58 23 5
59 20 3
60 19 1
61 17 5
62 9 1
63 3 6
64 6 2
65 17 2
66 16 1
67 16 1
68 9 6
69 21 2
70 27 4
71 23 5
72 14 6
73 8 3
74 5 3
75 8 6
76 16 3
77 31 2
78 7 5
79 27 5
80 30 1
81 13 5
82 10 3
83 9 6
84 14 5
85 18 4
86 2 1
87 28 6
88 13 6
89 19 3
90 25 2
91 6 4
92 13 3
93 14 6
94 3 5
95 23 5
96 6 2
97 26 5
98 35 1
99 9 4
100 15 6
101 3 2
TYPE_CONFLICT
1 5
4 6
2 4
3 4
3 6
3 5
2 5
1 3
1 6
2 3
TIME_WINDOW_SECTION
1 0 960
2 388 911
3 30 546
4 353 708
5 425 913
6 40 630
7 228 667
8 161 558
9 229 624
10 213 648
11 404 753
12 33 511
13 46 519
14 395 911
15 35 697
16 39 528
17 94 535
18 394 909
19 218 571
20 85 542
21 391 802
22 45 517
23 229 640
24 45 523
25 389 914
26 386 904
27 389 788
28 57 600
29 55 575
30 52 536
31 90 521
32 50 534
33 425 898
34 51 602
35 342 751
36 410 905
37 43 617
38 410 823
39 114 561
40 36 658
41 191 586
42 201 670
43 33 568
44 429 838
45 49 504
46 37 597
47 315 782
48 38 606
49 396 904
50 341 658
51 351 782
52 161 610
53 25 516
54 239 630
55 448 873
56 420 897
57 390 843
58 227 686
59 401 902
60 42 706
61 401 923
62 110 525
63 29 548
64 39 593
65 20 498
66 11 530
67 404 847
68 100 555
69 436 907
70 9 510
71 330 930
72 81 520
73 27 622
74 135 556
75 430 913
76 63 520
77 125 530
78 390 900
79 190 659
80 215 608
81 444 942
82 249 580
83 14 506
84 19 566
85 259 650
86 198 609
87 212 605
88 272 565
89 90 549
90 325 897
91 204 633
92 442 937
93 14 581
94 373 928
95 265 638
96 20 539
97 418 825
98 426 787
99 14 499
100 149 586
101 356 930
SERVICE_TIME_SECTION
1 0
2 10
3 10
4 10
5 10
6 10
7 10
8 10
9 10
10 10
11 10
12 10
13 10
14 10
15 10
16 10
17 10
18 10
19 10
20 10
21 10
22 10
23 10
24 10
25 10
26 10
27 10
28 10
29 10
30 10
31 10
32 10
33 10
34 10
35 10
36 10
37 10
38 10
39 10
40 10
41 10
42 10
43 10
44 10
45 10
46 10
47 10
48 10
49 10
50 10
51 10
52 10
53 10
54 10
55 10
56 10
57 10
58 10
59 10
60 10
61 10
62 10
63 10
64 10
65 10
66 10
67 10
68 10
69 10
70 10
71 10
72 10
73 10
74 10
75 10
76 10
77 10
78 10
79 10
80 10
81 10
82 10
83 10
84 10
85 10
86 10
87 10
88 10
89 10
90 10
91 10
92 10
93 10
94 10
95 10
96 10
97 10
98 10
99 10
100 10
101 10
DEPOT_SECTION
1
-1
EOF
