NAME : C205
COMMENT : Generated from c205.txt
TYPE : SDVRPTW
DIMENSION : 51
EDGE_WEIGHT_TYPE : EUC_2D
CAPACITY : 30
NODE_COORD_SECTION
1 40 50
2 52 75
3 45 70
4 62 69
5 60 66
6 42 65
7 16 42
8 58 70
9 34 60
10 28 70
11 35 66
12 35 69
13 25 85
14 22 75
15 22 85
16 20 80
17 20 85
18 18 75
19 15 75
20 15 80
21 30 50
22 30 56
23 28 52
24 14 66
25 25 50
26 22 66
27 8 62
28 23 52
29 4 55
30 20 50
31 20 55
32 10 35
33 10 40
34 8 40
35 8 45
36 5 35
37 5 45
38 2 40
39 0 40
40 0 45
41 36 18
42 35 32
43 33 32
44 33 35
45 32 20
46 30 30
47 34 25
48 30 35
49 36 40
50 48 20
51 26 32
DEMAND_SECTION
1 0
2 10
3 30
4 10
5 10
6 10
7 20
8 20
9 20
10 10
11 10
12 10
13 20
14 30
15 10
16 40
17 40
18 20
19 20
20 10
21 10
22 20
23 20
24 10
25 10
26 40
27 10
28 10
29 20
30 10
31 10
32 20
33 30
34 40
35 20
36 10
37 10
38 20
39 30
40 20
41 10
42 10
43 20
44 10
45 10
46 10
47 30
48 10
49 10
50 10
51 10
TIME_WINDOW_SECTION
1 0 3390
2 231 551
3 133 453
4 1087 1407
5 1181 1501
6 15 335
7 417 737
8 993 1313
9 2807 3127
10 2521 2841
11 2711 3031
12 2618 2938
13 2039 2359
14 2325 2645
15 1946 2266
16 2136 2456
17 1854 2174
18 2231 2551
19 1662 1982
20 1757 2077
21 10 330
22 2903 3223
23 12 332
24 1563 1883
25 36 356
26 2424 2744
27 1465 1785
28 129 449
29 1367 1687
30 318 638
31 223 543
32 701 1021
33 513 833
34 605 925
35 1266 1586
36 796 1116
37 1173 1493
38 891 1211
39 983 1303
40 1078 1398
41 1739 2059
42 2678 2998
43 2586 2906
44 2493 2813
45 1833 2153
46 2025 2345
47 1929 2249
48 2400 2720
49 2776 3096
50 887 1207
51 2212 2532
SERVICE_TIME_SECTION
1 0
2 90
3 90
4 90
5 90
6 90
7 90
8 90
9 90
10 90
11 90
12 90
13 90
14 90
15 90
16 90
17 90
18 90
19 90
20 90
21 90
22 90
23 90
24 90
25 90
26 90
27 90
28 90
29 90
30 90
31 90
32 90
33 90
34 90
35 90
36 90
37 90
38 90
39 90
40 90
41 90
42 90
43 90
44 90
45 90
46 90
47 90
48 90
49 90
50 90
51 90
DEPOT_SECTION
1
-1
EOF
