NAME : R105
COMMENT : Generated from r105.txt
TYPE : SDVRPTW
DIMENSION : 51
EDGE_WEIGHT_TYPE : EUC_2D
CAPACITY : 30
NODE_COORD_SECTION
1 35 35
2 41 49
3 35 17
4 55 45
5 55 20
6 15 30
7 25 30
8 20 50
9 10 43
10 55 60
11 30 60
12 20 65
13 50 35
14 30 25
15 15 10
16 30 5
17 10 20
18 5 30
19 20 40
20 15 60
21 45 65
22 45 20
23 45 10
24 55 5
25 65 35
26 65 20
27 45 30
28 35 40
29 41 37
30 64 42
31 40 60
32 31 52
33 35 69
34 53 52
35 65 55
36 63 65
37 2 60
38 20 20
39 5 5
40 60 12
41 40 25
42 42 7
43 24 12
44 23 3
45 11 14
46 6 38
47 2 48
48 8 56
49 13 52
50 6 68
51 47 47
DEMAND_SECTION
1 0
2 10
3 7
4 13
5 19
6 26
7 3
8 5
9 9
10 16
11 16
12 12
13 19
14 23
15 20
16 8
17 19
18 2
19 12
20 17
21 9
22 11
23 18
24 29
25 3
26 6
27 17
28 16
29 16
30 9
31 21
32 27
33 23
34 11
35 14
36 8
37 5
38 8
39 16
40 31
41 9
42 5
43 5
44 7
45 18
46 16
47 1
48 27
49 36
50 30
51 13
TIME_WINDOW_SECTION
1 0 230
2 151 181
3 40 70
4 106 136
5 139 169
6 24 54
7 89 119
8 71 101
9 85 115
10 87 117
11 114 144
12 57 87
13 53 83
14 149 179
15 32 62
16 51 81
17 65 95
18 147 177
19 77 107
20 66 96
21 116 146
22 52 82
23 87 117
24 58 88
25 143 173
26 156 186
27 122 152
28 27 57
29 29 59
30 53 83
31 61 91
32 40 70
33 131 161
34 27 57
35 107 137
36 133 163
37 41 71
38 124 154
39 73 103
40 34 64
41 75 105
42 87 117
43 25 55
44 122 152
45 59 89
46 29 59
47 107 137
48 41 71
49 155 185
50 98 128
51 114 144
SERVICE_TIME_SECTION
1 0
2 10
3 10
4 10
5 10
6 10
7 10
8 10
9 10
10 10
11 10
12 10
13 10
14 10
15 10
16 10
17 10
18 10
19 10
20 10
21 10
22 10
23 10
24 10
25 10
26 10
27 10
28 10
29 10
30 10
31 10
32 10
33 10
34 10
35 10
36 10
37 10
38 10
39 10
40 10
41 10
42 10
43 10
44 10
45 10
46 10
47 10
48 10
49 10
50 10
51 10
DEPOT_SECTION
1
-1
EOF
