NAME : R210
COMMENT : Generated from r210.txt
TYPE : SDVRPTW
DIMENSION : 51
EDGE_WEIGHT_TYPE : EUC_2D
CAPACITY : 30
NODE_COORD_SECTION
1 35 35
2 41 49
3 35 17
4 55 45
5 55 20
6 15 30
7 25 30
8 20 50
9 10 43
10 55 60
11 30 60
12 20 65
13 50 35
14 30 25
15 15 10
16 30 5
17 10 20
18 5 30
19 20 40
20 15 60
21 45 65
22 45 20
23 45 10
24 55 5
25 65 35
26 65 20
27 45 30
28 35 40
29 41 37
30 64 42
31 40 60
32 31 52
33 35 69
34 53 52
35 65 55
36 63 65
37 2 60
38 20 20
39 5 5
40 60 12
41 40 25
42 42 7
43 24 12
44 23 3
45 11 14
46 6 38
47 2 48
48 8 56
49 13 52
50 6 68
51 47 47
DEMAND_SECTION
1 0
2 10
3 7
4 13
5 19
6 26
7 3
8 5
9 9
10 16
11 16
12 12
13 19
14 23
15 20
16 8
17 19
18 2
19 12
20 17
21 9
22 11
23 18
24 29
25 3
26 6
27 17
28 16
29 16
30 9
31 21
32 27
33 23
34 11
35 14
36 8
37 5
38 8
39 16
40 31
41 9
42 5
43 5
44 7
45 18
46 16
47 1
48 27
49 36
50 30
51 13
TIME_WINDOW_SECTION
1 0 1000
2 190 974
3 18 792
4 289 822
5 679 800
6 20 906
7 355 574
8 72 669
9 393 492
10 394 503
11 517 692
12 206 325
13 15 725
14 694 823
15 32 694
16 176 299
17 102 543
18 673 930
19 229 582
20 95 552
21 418 829
22 18 727
23 349 554
24 206 325
25 435 960
26 826 956
27 328 927
28 44 315
29 6 526
30 29 513
31 199 414
32 17 744
33 482 955
34 24 299
35 265 878
36 626 873
37 41 328
38 339 960
39 298 409
40 33 344
41 300 497
42 336 571
43 25 292
44 458 867
45 230 343
46 29 309
47 338 805
48 34 602
49 200 962
50 441 600
51 272 917
SERVICE_TIME_SECTION
1 0
2 10
3 10
4 10
5 10
6 10
7 10
8 10
9 10
10 10
11 10
12 10
13 10
14 10
15 10
16 10
17 10
18 10
19 10
20 10
21 10
22 10
23 10
24 10
25 10
26 10
27 10
28 10
29 10
30 10
31 10
32 10
33 10
34 10
35 10
36 10
37 10
38 10
39 10
40 10
41 10
42 10
43 10
44 10
45 10
46 10
47 10
48 10
49 10
50 10
51 10
DEPOT_SECTION
1
-1
EOF
