NAME : C109
COMMENT : Generated from c109.txt
TYPE : SDVRPTW
DIMENSION : 26
EDGE_WEIGHT_TYPE : EUC_2D
CAPACITY : 100
NODE_COORD_SECTION
1 40 50
2 45 68
3 45 70
4 42 66
5 42 68
6 42 65
7 40 69
8 40 66
9 38 68
10 38 70
11 35 66
12 35 69
13 25 85
14 22 75
15 22 85
16 20 80
17 20 85
18 18 75
19 15 75
20 15 80
21 30 50
22 30 52
23 28 52
24 28 55
25 25 50
26 25 52
DEMAND_SECTION
1 0
2 10
3 30
4 10
5 10
6 10
7 20
8 20
9 20
10 10
11 10
12 10
13 20
14 30
15 10
16 40
17 40
18 20
19 20
20 10
21 10
22 20
23 20
24 10
25 10
26 40
TIME_WINDOW_SECTION
1 0 1236
2 760 1120
3 668 1028
4 16 376
5 575 935
6 15 375
7 482 842
8 18 378
9 110 470
10 390 750
11 204 564
12 297 657
13 507 867
14 30 390
15 414 774
16 227 587
17 322 682
18 33 393
19 37 397
20 132 492
21 10 370
22 760 1120
23 668 1028
24 575 935
25 15 375
26 17 377
SERVICE_TIME_SECTION
1 0
2 90
3 90
4 90
5 90
6 90
7 90
8 90
9 90
10 90
11 90
12 90
13 90
14 90
15 90
16 90
17 90
18 90
19 90
20 90
21 90
22 90
23 90
24 90
25 90
26 90
DEPOT_SECTION
1
-1
EOF
