NAME : R106
COMMENT : Generated from r106.txt
TYPE : SDVRPTW
DIMENSION : 26
EDGE_WEIGHT_TYPE : EUC_2D
CAPACITY : 100
NODE_COORD_SECTION
1 35 35
2 41 49
3 35 17
4 55 45
5 55 20
6 15 30
7 25 30
8 20 50
9 10 43
10 55 60
11 30 60
12 20 65
13 50 35
14 30 25
15 15 10
16 30 5
17 10 20
18 5 30
19 20 40
20 15 60
21 45 65
22 45 20
23 45 10
24 55 5
25 65 35
26 65 20
DEMAND_SECTION
1 0
2 10
3 7
4 13
5 19
6 26
7 3
8 5
9 9
10 16
11 16
12 12
13 19
14 23
15 20
16 8
17 19
18 2
19 12
20 17
21 9
22 11
23 18
24 29
25 3
26 6
TIME_WINDOW_SECTION
1 0 230
2 0 204
3 0 202
4 0 197
5 139 169
6 0 199
7 89 119
8 0 198
9 85 115
10 87 117
11 114 144
12 57 87
13 0 205
14 149 179
15 32 62
16 51 81
17 65 95
18 147 177
19 77 107
20 66 96
21 116 146
22 0 201
23 87 117
24 58 88
25 143 173
26 156 186
SERVICE_TIME_SECTION
1 0
2 10
3 10
4 10
5 10
6 10
7 10
8 10
9 10
10 10
11 10
12 10
13 10
14 10
15 10
16 10
17 10
18 10
19 10
20 10
21 10
22 10
23 10
24 10
25 10
26 10
DEPOT_SECTION
1
-1
EOF
