NAME : C106
COMMENT : Generated from c106.txt
TYPE : SDVRPTW
DIMENSION : 101
EDGE_WEIGHT_TYPE : EUC_2D
CAPACITY : 50
NODE_COORD_SECTION
1 40 50
2 45 68
3 45 70
4 42 66
5 42 68
6 42 65
7 40 69
8 40 66
9 38 68
10 38 70
11 35 66
12 35 69
13 25 85
14 22 75
15 22 85
16 20 80
17 20 85
18 18 75
19 15 75
20 15 80
21 30 50
22 30 52
23 28 52
24 28 55
25 25 50
26 25 52
27 25 55
28 23 52
29 23 55
30 20 50
31 20 55
32 10 35
33 10 40
34 8 40
35 8 45
36 5 35
37 5 45
38 2 40
39 0 40
40 0 45
41 35 30
42 35 32
43 33 32
44 33 35
45 32 30
46 30 30
47 30 32
48 30 35
49 28 30
50 28 35
51 26 32
52 25 30
53 25 35
54 44 5
55 42 10
56 42 15
57 40 5
58 40 15
59 38 5
60 38 15
61 35 5
62 50 30
63 50 35
64 50 40
65 48 30
66 48 40
67 47 35
68 47 40
69 45 30
70 45 35
71 95 30
72 95 35
73 53 30
74 92 30
75 53 35
76 45 65
77 90 35
78 88 30
79 88 35
80 87 30
81 85 25
82 85 35
83 75 55
84 72 55
85 70 58
86 68 60
87 66 55
88 65 55
89 65 60
90 63 58
91 60 55
92 60 60
93 67 85
94 65 85
95 65 82
96 62 80
97 60 80
98 60 85
99 58 75
100 55 80
101 55 85
DEMAND_SECTION
1 0 0
2 10 2
3 30 2
4 10 2
5 10 3
6 10 3
7 20 2
8 20 2
9 20 3
10 10 2
11 10 1
12 10 2
13 20 3
14 30 3
15 10 3
16 40 1
17 40 2
18 20 1
19 20 3
20 10 2
21 10 3
22 20 1
23 20 3
24 10 3
25 10 1
26 40 2
27 10 3
28 10 2
29 20 2
30 10 1
31 10 2
32 20 2
33 30 3
34 40 1
35 20 1
36 10 2
37 10 2
38 20 1
39 30 3
40 20 2
41 10 2
42 10 1
43 20 1
44 10 1
45 10 2
46 10 3
47 30 1
48 10 1
49 10 2
50 10 2
51 10 3
52 10 3
53 10 2
54 20 3
55 40 1
56 10 2
57 30 1
58 40 3
59 30 3
60 10 2
61 20 3
62 10 3
63 20 1
64 50 3
65 10 2
66 10 1
67 10 1
68 10 1
69 10 3
70 10 2
71 30 1
72 20 2
73 10 3
74 10 2
75 50 3
76 20 1
77 10 1
78 10 2
79 20 1
80 10 3
81 10 2
82 30 1
83 20 1
84 10 1
85 20 3
86 30 1
87 10 2
88 20 3
89 30 1
90 10 1
91 10 3
92 10 2
93 20 2
94 40 1
95 10 1
96 30 3
97 10 2
98 30 2
99 20 2
100 10 1
101 20 3
TIME_WINDOW_SECTION
1 0 1236
2 890 989
3 816 879
4 55 156
5 703 806
6 15 60
7 559 764
8 172 223
9 250 329
10 489 650
11 361 406
12 450 503
13 647 726
14 30 95
15 571 616
16 392 421
17 478 525
18 105 142
19 172 261
20 274 349
21 10 77
22 918 961
23 806 889
24 739 770
25 55 154
26 172 221
27 612 711
28 264 313
29 553 586
30 365 398
31 452 501
32 204 233
33 31 189
34 42 203
35 715 852
36 251 376
37 648 733
38 365 452
39 474 527
40 541 650
41 240 345
42 123 278
43 19 225
44 16 153
45 338 433
46 513 628
47 415 542
48 872 1127
49 599 726
50 917 1126
51 779 916
52 695 816
53 857 1024
54 221 412
55 96 347
56 35 233
57 347 474
58 35 172
59 403 602
60 521 870
61 487 704
62 422 719
63 217 362
64 142 247
65 567 758
66 34 171
67 794 907
68 12 226
69 716 795
70 873 1012
71 266 577
72 181 472
73 402 553
74 345 684
75 294 471
76 951 1114
77 153 310
78 450 767
79 50 237
80 567 832
81 713 876
82 47 331
83 311 478
84 127 476
85 349 632
86 476 691
87 67 344
88 25 256
89 546 807
90 630 909
91 20 293
92 769 956
93 229 580
94 442 551
95 227 394
96 163 272
97 36 291
98 469 714
99 30 227
100 595 968
101 493 880
SERVICE_TIME_SECTION
1 0
2 90
3 90
4 90
5 90
6 90
7 90
8 90
9 90
10 90
11 90
12 90
13 90
14 90
15 90
16 90
17 90
18 90
19 90
20 90
21 90
22 90
23 90
24 90
25 90
26 90
27 90
28 90
29 90
30 90
31 90
32 90
33 90
34 90
35 90
36 90
37 90
38 90
39 90
40 90
41 90
42 90
43 90
44 90
45 90
46 90
47 90
48 90
49 90
50 90
51 90
52 90
53 90
54 90
55 90
56 90
57 90
58 90
59 90
60 90
61 90
62 90
63 90
64 90
65 90
66 90
67 90
68 90
69 90
70 90
71 90
72 90
73 90
74 90
75 90
76 90
77 90
78 90
79 90
80 90
81 90
82 90
83 90
84 90
85 90
86 90
87 90
88 90
89 90
90 90
91 90
92 90
93 90
94 90
95 90
96 90
97 90
98 90
99 90
100 90
101 90
DEPOT_SECTION
1
-1
EOF
