NAME : R107
COMMENT : Generated from r107.txt
TYPE : SDVRPTW
DIMENSION : 101
EDGE_WEIGHT_TYPE : EUC_2D
CAPACITY : 50
NODE_COORD_SECTION
1 35 35
2 41 49
3 35 17
4 55 45
5 55 20
6 15 30
7 25 30
8 20 50
9 10 43
10 55 60
11 30 60
12 20 65
13 50 35
14 30 25
15 15 10
16 30 5
17 10 20
18 5 30
19 20 40
20 15 60
21 45 65
22 45 20
23 45 10
24 55 5
25 65 35
26 65 20
27 45 30
28 35 40
29 41 37
30 64 42
31 40 60
32 31 52
33 35 69
34 53 52
35 65 55
36 63 65
37 2 60
38 20 20
39 5 5
40 60 12
41 40 25
42 42 7
43 24 12
44 23 3
45 11 14
46 6 38
47 2 48
48 8 56
49 13 52
50 6 68
51 47 47
52 49 58
53 27 43
54 37 31
55 57 29
56 63 23
57 53 12
58 32 12
59 36 26
60 21 24
61 17 34
62 12 24
63 24 58
64 27 69
65 15 77
66 62 77
67 49 73
68 67 5
69 56 39
70 37 47
71 37 56
72 57 68
73 47 16
74 44 17
75 46 13
76 49 11
77 49 42
78 53 43
79 61 52
80 57 48
81 56 37
82 55 54
83 15 47
84 14 37
85 11 31
86 16 22
87 4 18
88 28 18
89 26 52
90 26 35
91 31 67
92 15 19
93 22 22
94 18 24
95 26 27
96 25 24
97 22 27
98 25 21
99 19 21
100 20 26
101 18 18
DEMAND_SECTION
1 0 0
2 10 2
3 7 3
4 13 1
5 19 2
6 26 2
7 3 3
8 5 2
9 9 3
10 16 1
11 16 2
12 12 2
13 19 2
14 23 1
15 20 3
16 8 2
17 19 2
18 2 2
19 12 2
20 17 3
21 9 1
22 11 2
23 18 1
24 29 1
25 3 3
26 6 3
27 17 1
28 16 1
29 16 1
30 9 1
31 21 1
32 27 3
33 23 3
34 11 3
35 14 1
36 8 3
37 5 3
38 8 1
39 16 3
40 31 3
41 9 1
42 5 1
43 5 2
44 7 2
45 18 3
46 16 1
47 1 1
48 27 1
49 36 3
50 30 1
51 13 1
52 10 1
53 9 2
54 14 3
55 18 1
56 2 3
57 6 1
58 7 1
59 18 1
60 28 2
61 3 1
62 13 3
63 19 2
64 10 1
65 9 2
66 20 1
67 25 1
68 25 1
69 36 3
70 6 3
71 5 2
72 15 1
73 25 3
74 9 2
75 8 1
76 18 3
77 13 1
78 14 3
79 3 3
80 23 2
81 6 2
82 26 2
83 16 1
84 11 2
85 7 1
86 41 3
87 35 1
88 26 3
89 9 3
90 15 1
91 3 2
92 1 1
93 2 3
94 22 3
95 27 2
96 20 3
97 11 2
98 12 1
99 10 3
100 9 2
101 17 3
TIME_WINDOW_SECTION
1 0 230
2 0 204
3 0 202
4 0 197
5 139 169
6 0 199
7 89 119
8 0 198
9 85 115
10 87 117
11 114 144
12 57 87
13 0 205
14 149 179
15 0 187
16 51 81
17 0 190
18 147 177
19 0 204
20 0 187
21 0 188
22 0 201
23 87 117
24 58 88
25 0 190
26 156 186
27 0 208
28 27 57
29 0 213
30 0 190
31 61 91
32 0 202
33 0 186
34 27 57
35 0 183
36 133 163
37 41 71
38 0 198
39 73 103
40 34 64
41 75 105
42 87 117
43 25 55
44 0 185
45 59 89
46 29 59
47 0 184
48 0 185
49 0 192
50 98 128
51 0 203
52 0 193
53 0 208
54 85 115
55 0 197
56 126 156
57 120 150
58 0 196
59 180 210
60 0 202
61 0 201
62 0 194
63 48 78
64 0 185
65 63 93
66 49 79
67 117 147
68 73 103
69 132 162
70 40 70
71 168 198
72 0 180
73 0 197
74 0 199
75 139 169
76 0 192
77 63 93
78 169 199
79 86 116
80 82 112
81 168 198
82 0 192
83 0 196
84 0 198
85 91 121
86 0 196
87 0 184
88 83 113
89 64 94
90 0 211
91 0 187
92 0 194
93 18 48
94 169 199
95 0 207
96 0 205
97 0 204
98 0 202
99 0 198
100 73 103
101 165 195
SERVICE_TIME_SECTION
1 0
2 10
3 10
4 10
5 10
6 10
7 10
8 10
9 10
10 10
11 10
12 10
13 10
14 10
15 10
16 10
17 10
18 10
19 10
20 10
21 10
22 10
23 10
24 10
25 10
26 10
27 10
28 10
29 10
30 10
31 10
32 10
33 10
34 10
35 10
36 10
37 10
38 10
39 10
40 10
41 10
42 10
43 10
44 10
45 10
46 10
47 10
48 10
49 10
50 10
51 10
52 10
53 10
54 10
55 10
56 10
57 10
58 10
59 10
60 10
61 10
62 10
63 10
64 10
65 10
66 10
67 10
68 10
69 10
70 10
71 10
72 10
73 10
74 10
75 10
76 10
77 10
78 10
79 10
80 10
81 10
82 10
83 10
84 10
85 10
86 10
87 10
88 10
89 10
90 10
91 10
92 10
93 10
94 10
95 10
96 10
97 10
98 10
99 10
100 10
101 10
DEPOT_SECTION
1
-1
EOF
