NAME : R110
COMMENT : Generated from r110.txt
TYPE : SDVRPTW
DIMENSION : 101
EDGE_WEIGHT_TYPE : EUC_2D
CAPACITY : 50
NODE_COORD_SECTION
1 35 35
2 41 49
3 35 17
4 55 45
5 55 20
6 15 30
7 25 30
8 20 50
9 10 43
10 55 60
11 30 60
12 20 65
13 50 35
14 30 25
15 15 10
16 30 5
17 10 20
18 5 30
19 20 40
20 15 60
21 45 65
22 45 20
23 45 10
24 55 5
25 65 35
26 65 20
27 45 30
28 35 40
29 41 37
30 64 42
31 40 60
32 31 52
33 35 69
34 53 52
35 65 55
36 63 65
37 2 60
38 20 20
39 5 5
40 60 12
41 40 25
42 42 7
43 24 12
44 23 3
45 11 14
46 6 38
47 2 48
48 8 56
49 13 52
50 6 68
51 47 47
52 49 58
53 27 43
54 37 31
55 57 29
56 63 23
57 53 12
58 32 12
59 36 26
60 21 24
61 17 34
62 12 24
63 24 58
64 27 69
65 15 77
66 62 77
67 49 73
68 67 5
69 56 39
70 37 47
71 37 56
72 57 68
73 47 16
74 44 17
75 46 13
76 49 11
77 49 42
78 53 43
79 61 52
80 57 48
81 56 37
82 55 54
83 15 47
84 14 37
85 11 31
86 16 22
87 4 18
88 28 18
89 26 52
90 26 35
91 31 67
92 15 19
93 22 22
94 18 24
95 26 27
96 25 24
97 22 27
98 25 21
99 19 21
100 20 26
101 18 18
DEMAND_SECTION
1 0 0
2 10 1
3 7 2
4 13 1
5 19 2
6 26 1
7 3 3
8 5 3
9 9 1
10 16 2
11 16 3
12 12 3
13 19 3
14 23 3
15 20 2
16 8 3
17 19 2
18 2 1
19 12 3
20 17 1
21 9 2
22 11 3
23 18 3
24 29 1
25 3 1
26 6 1
27 17 1
28 16 2
29 16 1
30 9 2
31 21 3
32 27 1
33 23 2
34 11 2
35 14 2
36 8 2
37 5 2
38 8 3
39 16 2
40 31 3
41 9 3
42 5 3
43 5 2
44 7 2
45 18 2
46 16 2
47 1 2
48 27 1
49 36 3
50 30 3
51 13 3
52 10 2
53 9 3
54 14 2
55 18 3
56 2 2
57 6 3
58 7 2
59 18 1
60 28 2
61 3 1
62 13 3
63 19 3
64 10 1
65 9 1
66 20 1
67 25 2
68 25 2
69 36 1
70 6 2
71 5 1
72 15 2
73 25 2
74 9 2
75 8 1
76 18 3
77 13 1
78 14 2
79 3 2
80 23 1
81 6 2
82 26 1
83 16 3
84 11 2
85 7 2
86 41 2
87 35 1
88 26 1
89 9 1
90 15 3
91 3 3
92 1 2
93 2 1
94 22 2
95 27 1
96 20 2
97 11 1
98 12 1
99 10 3
100 9 2
101 17 3
TIME_WINDOW_SECTION
1 0 230
2 130 201
3 20 89
4 106 135
5 71 195
6 20 107
7 54 153
8 66 105
9 61 138
10 53 150
11 101 156
12 33 152
13 38 97
14 70 208
15 32 137
16 30 154
17 54 105
18 51 189
19 77 106
20 53 108
21 109 152
22 37 96
23 59 144
24 36 155
25 118 190
26 47 186
27 117 156
28 5 156
29 8 79
30 37 98
31 28 123
32 24 85
33 116 175
34 24 179
35 100 143
36 50 178
37 41 178
38 117 160
39 42 145
40 33 186
41 51 128
42 44 159
43 25 172
44 115 158
45 31 138
46 29 189
47 93 150
48 34 116
49 125 192
50 93 132
51 105 152
52 66 119
53 25 88
54 62 137
55 121 168
56 70 189
57 81 188
58 78 133
59 79 210
60 17 123
61 130 201
62 59 102
63 25 164
64 34 112
65 46 165
66 49 170
67 77 179
68 43 150
69 82 198
70 12 142
71 21 198
72 57 106
73 22 110
74 60 105
75 73 195
76 46 101
77 36 119
78 65 200
79 43 158
80 58 135
81 69 198
82 87 110
83 28 91
84 21 97
85 68 143
86 74 117
87 79 118
88 84 111
89 24 133
90 128 211
91 76 123
92 130 194
93 18 181
94 41 199
95 88 121
96 14 83
97 119 160
98 122 153
99 32 93
100 38 137
101 28 195
SERVICE_TIME_SECTION
1 0
2 10
3 10
4 10
5 10
6 10
7 10
8 10
9 10
10 10
11 10
12 10
13 10
14 10
15 10
16 10
17 10
18 10
19 10
20 10
21 10
22 10
23 10
24 10
25 10
26 10
27 10
28 10
29 10
30 10
31 10
32 10
33 10
34 10
35 10
36 10
37 10
38 10
39 10
40 10
41 10
42 10
43 10
44 10
45 10
46 10
47 10
48 10
49 10
50 10
51 10
52 10
53 10
54 10
55 10
56 10
57 10
58 10
59 10
60 10
61 10
62 10
63 10
64 10
65 10
66 10
67 10
68 10
69 10
70 10
71 10
72 10
73 10
74 10
75 10
76 10
77 10
78 10
79 10
80 10
81 10
82 10
83 10
84 10
85 10
86 10
87 10
88 10
89 10
90 10
91 10
92 10
93 10
94 10
95 10
96 10
97 10
98 10
99 10
100 10
101 10
DEPOT_SECTION
1
-1
EOF
