NAME : R202
COMMENT : Generated from r202.txt
TYPE : SDVRPTW
DIMENSION : 101
EDGE_WEIGHT_TYPE : EUC_2D
CAPACITY : 50
NODE_COORD_SECTION
1 35 35
2 41 49
3 35 17
4 55 45
5 55 20
6 15 30
7 25 30
8 20 50
9 10 43
10 55 60
11 30 60
12 20 65
13 50 35
14 30 25
15 15 10
16 30 5
17 10 20
18 5 30
19 20 40
20 15 60
21 45 65
22 45 20
23 45 10
24 55 5
25 65 35
26 65 20
27 45 30
28 35 40
29 41 37
30 64 42
31 40 60
32 31 52
33 35 69
34 53 52
35 65 55
36 63 65
37 2 60
38 20 20
39 5 5
40 60 12
41 40 25
42 42 7
43 24 12
44 23 3
45 11 14
46 6 38
47 2 48
48 8 56
49 13 52
50 6 68
51 47 47
52 49 58
53 27 43
54 37 31
55 57 29
56 63 23
57 53 12
58 32 12
59 36 26
60 21 24
61 17 34
62 12 24
63 24 58
64 27 69
65 15 77
66 62 77
67 49 73
68 67 5
69 56 39
70 37 47
71 37 56
72 57 68
73 47 16
74 44 17
75 46 13
76 49 11
77 49 42
78 53 43
79 61 52
80 57 48
81 56 37
82 55 54
83 15 47
84 14 37
85 11 31
86 16 22
87 4 18
88 28 18
89 26 52
90 26 35
91 31 67
92 15 19
93 22 22
94 18 24
95 26 27
96 25 24
97 22 27
98 25 21
99 19 21
100 20 26
101 18 18
DEMAND_SECTION
1 0 0
2 10 2
3 7 3
4 13 2
5 19 2
6 26 2
7 3 3
8 5 1
9 9 1
10 16 1
11 16 1
12 12 3
13 19 1
14 23 1
15 20 2
16 8 3
17 19 3
18 2 2
19 12 1
20 17 1
21 9 1
22 11 2
23 18 2
24 29 1
25 3 1
26 6 2
27 17 2
28 16 2
29 16 2
30 9 3
31 21 1
32 27 1
33 23 2
34 11 1
35 14 1
36 8 1
37 5 2
38 8 3
39 16 1
40 31 2
41 9 1
42 5 3
43 5 1
44 7 3
45 18 1
46 16 3
47 1 1
48 27 2
49 36 3
50 30 2
51 13 1
52 10 1
53 9 1
54 14 2
55 18 3
56 2 3
57 6 2
58 7 1
59 18 1
60 28 3
61 3 1
62 13 2
63 19 1
64 10 2
65 9 2
66 20 2
67 25 2
68 25 1
69 36 1
70 6 2
71 5 2
72 15 3
73 25 2
74 9 1
75 8 3
76 18 1
77 13 3
78 14 2
79 3 3
80 23 3
81 6 3
82 26 3
83 16 2
84 11 2
85 7 3
86 41 2
87 35 1
88 26 2
89 9 3
90 15 1
91 3 2
92 1 1
93 2 3
94 22 1
95 27 3
96 20 3
97 11 2
98 12 1
99 10 3
100 9 1
101 17 1
TIME_WINDOW_SECTION
1 0 1000
2 0 974
3 0 972
4 0 967
5 678 801
6 0 969
7 415 514
8 0 968
9 404 481
10 400 497
11 577 632
12 206 325
13 0 975
14 690 827
15 32 243
16 175 300
17 272 373
18 733 870
19 377 434
20 269 378
21 581 666
22 0 971
23 409 494
24 206 325
25 704 847
26 817 956
27 0 978
28 104 255
29 114 255
30 190 313
31 259 354
32 0 972
33 660 777
34 45 200
35 0 953
36 686 813
37 41 208
38 0 968
39 302 405
40 33 224
41 360 437
42 396 511
43 25 172
44 620 705
45 233 340
46 29 189
47 515 628
48 85 250
49 0 962
50 501 540
51 0 973
52 348 453
53 0 978
54 414 489
55 641 734
56 620 739
57 585 692
58 421 530
59 849 980
60 0 972
61 721 862
62 290 377
63 163 302
64 34 191
65 214 333
66 49 188
67 592 693
68 294 401
69 637 752
70 162 293
71 788 968
72 268 367
73 0 967
74 308 399
75 681 802
76 0 962
77 290 373
78 817 952
79 384 499
80 388 465
81 839 968
82 411 456
83 0 966
84 0 968
85 436 511
86 0 966
87 388 465
88 420 447
89 279 388
90 755 920
91 392 487
92 0 964
93 18 181
94 811 969
95 0 977
96 0 975
97 0 974
98 612 673
99 0 968
100 333 432
101 798 965
SERVICE_TIME_SECTION
1 0
2 10
3 10
4 10
5 10
6 10
7 10
8 10
9 10
10 10
11 10
12 10
13 10
14 10
15 10
16 10
17 10
18 10
19 10
20 10
21 10
22 10
23 10
24 10
25 10
26 10
27 10
28 10
29 10
30 10
31 10
32 10
33 10
34 10
35 10
36 10
37 10
38 10
39 10
40 10
41 10
42 10
43 10
44 10
45 10
46 10
47 10
48 10
49 10
50 10
51 10
52 10
53 10
54 10
55 10
56 10
57 10
58 10
59 10
60 10
61 10
62 10
63 10
64 10
65 10
66 10
67 10
68 10
69 10
70 10
71 10
72 10
73 10
74 10
75 10
76 10
77 10
78 10
79 10
80 10
81 10
82 10
83 10
84 10
85 10
86 10
87 10
88 10
89 10
90 10
91 10
92 10
93 10
94 10
95 10
96 10
97 10
98 10
99 10
100 10
101 10
DEPOT_SECTION
1
-1
EOF
