NAME : RC105
COMMENT : Generated from rc105.txt
TYPE : SDVRPTW
DIMENSION : 101
EDGE_WEIGHT_TYPE : EUC_2D
CAPACITY : 50
NODE_COORD_SECTION
1 40 50
2 25 85
3 22 75
4 22 85
5 20 80
6 20 85
7 18 75
8 15 75
9 15 80
10 10 35
11 10 40
12 8 40
13 8 45
14 5 35
15 5 45
16 2 40
17 0 40
18 0 45
19 44 5
20 42 10
21 42 15
22 40 5
23 40 15
24 38 5
25 38 15
26 35 5
27 95 30
28 95 35
29 92 30
30 90 35
31 88 30
32 88 35
33 87 30
34 85 25
35 85 35
36 67 85
37 65 85
38 65 82
39 62 80
40 60 80
41 60 85
42 58 75
43 55 80
44 55 85
45 55 82
46 20 82
47 18 80
48 2 45
49 42 5
50 42 12
51 72 35
52 55 20
53 25 30
54 20 50
55 55 60
56 30 60
57 50 35
58 30 25
59 15 10
60 10 20
61 15 60
62 45 65
63 65 35
64 65 20
65 45 30
66 35 40
67 41 37
68 64 42
69 40 60
70 31 52
71 35 69
72 65 55
73 63 65
74 2 60
75 20 20
76 5 5
77 60 12
78 23 3
79 8 56
80 6 68
81 47 47
82 49 58
83 27 43
84 37 31
85 57 29
86 63 23
87 21 24
88 12 24
89 24 58
90 67 5
91 37 47
92 49 42
93 53 43
94 61 52
95 57 48
96 56 37
97 55 54
98 4 18
99 26 52
100 26 35
101 31 67
DEMAND_SECTION
1 0 0
2 20 3
3 30 1
4 10 3
5 40 2
6 20 3
7 20 1
8 20 2
9 10 3
10 20 3
11 30 3
12 40 3
13 20 2
14 10 3
15 10 3
16 20 1
17 20 2
18 20 3
19 20 1
20 40 1
21 10 3
22 10 1
23 40 1
24 30 2
25 10 1
26 20 3
27 30 2
28 20 1
29 10 3
30 10 3
31 10 1
32 20 3
33 10 3
34 10 3
35 30 2
36 20 2
37 40 3
38 10 3
39 30 3
40 10 2
41 30 2
42 20 2
43 10 3
44 20 3
45 10 3
46 10 1
47 10 3
48 10 3
49 10 1
50 10 2
51 30 3
52 19 3
53 3 2
54 5 1
55 16 3
56 16 3
57 19 2
58 23 2
59 20 3
60 19 1
61 17 3
62 9 1
63 3 1
64 6 1
65 17 3
66 16 2
67 16 1
68 9 1
69 21 2
70 27 1
71 23 1
72 14 3
73 8 2
74 5 1
75 8 2
76 16 3
77 31 3
78 7 3
79 27 2
80 30 1
81 13 3
82 10 3
83 9 3
84 14 1
85 18 2
86 2 3
87 28 1
88 13 3
89 19 3
90 25 3
91 6 2
92 13 1
93 14 3
94 3 1
95 23 1
96 6 2
97 26 3
98 35 3
99 9 3
100 15 1
101 3 1
TIME_WINDOW_SECTION
1 0 240
2 71 191
3 30 150
4 64 184
5 151 161
6 40 160
7 96 123
8 35 155
9 101 111
10 101 111
11 123 144
12 69 79
13 32 152
14 152 162
15 35 117
16 68 78
17 59 114
18 147 180
19 79 124
20 58 115
21 111 162
22 45 165
23 94 119
24 75 85
25 128 194
26 171 181
27 58 171
28 60 93
29 55 120
30 52 112
31 75 102
32 50 170
33 116 175
34 51 85
35 62 182
36 138 169
37 43 78
38 69 189
39 85 95
40 36 74
41 87 112
42 92 121
43 33 66
44 117 168
45 74 84
46 37 72
47 98 157
48 38 109
49 64 184
50 109 128
51 71 191
52 69 126
53 25 145
54 101 111
55 127 180
56 150 160
57 130 159
58 82 139
59 172 182
60 42 162
61 137 202
62 55 106
63 62 72
64 39 108
65 53 82
66 11 43
67 134 161
68 80 90
69 144 173
70 51 61
71 172 210
72 52 107
73 27 147
74 65 118
75 151 161
76 57 172
77 85 95
78 163 173
79 90 119
80 99 109
81 190 222
82 80 121
83 14 134
84 19 139
85 106 116
86 42 162
87 77 126
88 100 110
89 67 96
90 105 177
91 74 127
92 97 217
93 15 25
94 173 208
95 50 170
96 20 140
97 87 207
98 112 157
99 14 134
100 87 97
101 200 210
SERVICE_TIME_SECTION
1 0
2 10
3 10
4 10
5 10
6 10
7 10
8 10
9 10
10 10
11 10
12 10
13 10
14 10
15 10
16 10
17 10
18 10
19 10
20 10
21 10
22 10
23 10
24 10
25 10
26 10
27 10
28 10
29 10
30 10
31 10
32 10
33 10
34 10
35 10
36 10
37 10
38 10
39 10
40 10
41 10
42 10
43 10
44 10
45 10
46 10
47 10
48 10
49 10
50 10
51 10
52 10
53 10
54 10
55 10
56 10
57 10
58 10
59 10
60 10
61 10
62 10
63 10
64 10
65 10
66 10
67 10
68 10
69 10
70 10
71 10
72 10
73 10
74 10
75 10
76 10
77 10
78 10
79 10
80 10
81 10
82 10
83 10
84 10
85 10
86 10
87 10
88 10
89 10
90 10
91 10
92 10
93 10
94 10
95 10
96 10
97 10
98 10
99 10
100 10
101 10
DEPOT_SECTION
1
-1
EOF
