NAME : C205
COMMENT : Generated from c205.txt
TYPE : SDVRPTW
DIMENSION : 101
EDGE_WEIGHT_TYPE : EUC_2D
CAPACITY : 100
NODE_COORD_SECTION
1 40 50
2 52 75
3 45 70
4 62 69
5 60 66
6 42 65
7 16 42
8 58 70
9 34 60
10 28 70
11 35 66
12 35 69
13 25 85
14 22 75
15 22 85
16 20 80
17 20 85
18 18 75
19 15 75
20 15 80
21 30 50
22 30 56
23 28 52
24 14 66
25 25 50
26 22 66
27 8 62
28 23 52
29 4 55
30 20 50
31 20 55
32 10 35
33 10 40
34 8 40
35 8 45
36 5 35
37 5 45
38 2 40
39 0 40
40 0 45
41 36 18
42 35 32
43 33 32
44 33 35
45 32 20
46 30 30
47 34 25
48 30 35
49 36 40
50 48 20
51 26 32
52 25 30
53 25 35
54 44 5
55 42 10
56 42 15
57 40 5
58 38 15
59 38 5
60 38 10
61 35 5
62 50 30
63 50 35
64 50 40
65 48 30
66 44 25
67 47 35
68 47 40
69 42 30
70 45 35
71 95 30
72 95 35
73 53 30
74 92 30
75 53 35
76 45 65
77 90 35
78 72 45
79 78 40
80 87 30
81 85 25
82 85 35
83 75 55
84 72 55
85 70 58
86 86 46
87 66 55
88 64 46
89 65 60
90 56 64
91 60 55
92 60 60
93 67 85
94 42 58
95 65 82
96 62 80
97 62 40
98 60 85
99 58 75
100 55 80
101 55 85
DEMAND_SECTION
1 0 0
2 10 2
3 30 2
4 10 2
5 10 3
6 10 1
7 20 3
8 20 1
9 20 3
10 10 3
11 10 2
12 10 2
13 20 1
14 30 1
15 10 1
16 40 2
17 40 2
18 20 3
19 20 3
20 10 3
21 10 2
22 20 2
23 20 2
24 10 3
25 10 1
26 40 3
27 10 2
28 10 2
29 20 3
30 10 3
31 10 3
32 20 2
33 30 3
34 40 2
35 20 1
36 10 1
37 10 2
38 20 2
39 30 3
40 20 2
41 10 2
42 10 1
43 20 1
44 10 2
45 10 1
46 10 3
47 30 1
48 10 3
49 10 3
50 10 3
51 10 1
52 10 1
53 10 2
54 20 3
55 40 3
56 10 2
57 30 1
58 40 1
59 30 2
60 10 3
61 20 2
62 10 2
63 20 1
64 50 2
65 10 1
66 10 2
67 10 1
68 10 3
69 10 3
70 10 3
71 30 3
72 20 2
73 10 1
74 10 2
75 50 3
76 20 1
77 10 3
78 10 2
79 20 2
80 10 2
81 10 3
82 30 3
83 20 3
84 10 1
85 20 3
86 30 2
87 10 1
88 20 3
89 30 2
90 10 3
91 10 3
92 10 1
93 20 3
94 40 3
95 10 2
96 30 3
97 10 2
98 30 3
99 20 3
100 10 2
101 20 1
TIME_WINDOW_SECTION
1 0 3390
2 231 551
3 133 453
4 1087 1407
5 1181 1501
6 15 335
7 417 737
8 993 1313
9 2807 3127
10 2521 2841
11 2711 3031
12 2618 2938
13 2039 2359
14 2325 2645
15 1946 2266
16 2136 2456
17 1854 2174
18 2231 2551
19 1662 1982
20 1757 2077
21 10 330
22 2903 3223
23 12 332
24 1563 1883
25 36 356
26 2424 2744
27 1465 1785
28 129 449
29 1367 1687
30 318 638
31 223 543
32 701 1021
33 513 833
34 605 925
35 1266 1586
36 796 1116
37 1173 1493
38 891 1211
39 983 1303
40 1078 1398
41 1739 2059
42 2678 2998
43 2586 2906
44 2493 2813
45 1833 2153
46 2025 2345
47 1929 2249
48 2400 2720
49 2776 3096
50 887 1207
51 2212 2532
52 2120 2440
53 2305 2625
54 1176 1496
55 1080 1400
56 985 1305
57 1270 1590
58 1645 1965
59 1362 1682
60 1550 1870
61 1455 1775
62 321 641
63 40 360
64 14 334
65 413 733
66 791 1111
67 508 828
68 12 332
69 696 1016
70 600 920
71 2241 2561
72 2146 2466
73 228 548
74 2334 2654
75 133 453
76 38 358
77 2051 2371
78 2820 3140
79 2722 3042
80 2528 2848
81 2433 2753
82 2623 2943
83 1845 2165
84 1752 2072
85 1561 1881
86 1949 2269
87 1656 1976
88 2955 3275
89 1466 1786
90 1275 1595
91 2959 3279
92 1371 1691
93 614 934
94 8 328
95 708 1028
96 801 1121
97 2921 3241
98 517 837
99 898 1218
100 327 647
101 422 742
SERVICE_TIME_SECTION
1 0
2 90
3 90
4 90
5 90
6 90
7 90
8 90
9 90
10 90
11 90
12 90
13 90
14 90
15 90
16 90
17 90
18 90
19 90
20 90
21 90
22 90
23 90
24 90
25 90
26 90
27 90
28 90
29 90
30 90
31 90
32 90
33 90
34 90
35 90
36 90
37 90
38 90
39 90
40 90
41 90
42 90
43 90
44 90
45 90
46 90
47 90
48 90
49 90
50 90
51 90
52 90
53 90
54 90
55 90
56 90
57 90
58 90
59 90
60 90
61 90
62 90
63 90
64 90
65 90
66 90
67 90
68 90
69 90
70 90
71 90
72 90
73 90
74 90
75 90
76 90
77 90
78 90
79 90
80 90
81 90
82 90
83 90
84 90
85 90
86 90
87 90
88 90
89 90
90 90
91 90
92 90
93 90
94 90
95 90
96 90
97 90
98 90
99 90
100 90
101 90
DEPOT_SECTION
1
-1
EOF
