NAME : R112
COMMENT : Generated from r112.txt
TYPE : SDVRPTW
DIMENSION : 101
EDGE_WEIGHT_TYPE : EUC_2D
CAPACITY : 100
NODE_COORD_SECTION
1 35 35
2 41 49
3 35 17
4 55 45
5 55 20
6 15 30
7 25 30
8 20 50
9 10 43
10 55 60
11 30 60
12 20 65
13 50 35
14 30 25
15 15 10
16 30 5
17 10 20
18 5 30
19 20 40
20 15 60
21 45 65
22 45 20
23 45 10
24 55 5
25 65 35
26 65 20
27 45 30
28 35 40
29 41 37
30 64 42
31 40 60
32 31 52
33 35 69
34 53 52
35 65 55
36 63 65
37 2 60
38 20 20
39 5 5
40 60 12
41 40 25
42 42 7
43 24 12
44 23 3
45 11 14
46 6 38
47 2 48
48 8 56
49 13 52
50 6 68
51 47 47
52 49 58
53 27 43
54 37 31
55 57 29
56 63 23
57 53 12
58 32 12
59 36 26
60 21 24
61 17 34
62 12 24
63 24 58
64 27 69
65 15 77
66 62 77
67 49 73
68 67 5
69 56 39
70 37 47
71 37 56
72 57 68
73 47 16
74 44 17
75 46 13
76 49 11
77 49 42
78 53 43
79 61 52
80 57 48
81 56 37
82 55 54
83 15 47
84 14 37
85 11 31
86 16 22
87 4 18
88 28 18
89 26 52
90 26 35
91 31 67
92 15 19
93 22 22
94 18 24
95 26 27
96 25 24
97 22 27
98 25 21
99 19 21
100 20 26
101 18 18
DEMAND_SECTION
1 0 0
2 10 3
3 7 1
4 13 1
5 19 2
6 26 3
7 3 2
8 5 1
9 9 1
10 16 3
11 16 2
12 12 2
13 19 3
14 23 2
15 20 1
16 8 3
17 19 1
18 2 1
19 12 3
20 17 2
21 9 2
22 11 1
23 18 2
24 29 1
25 3 1
26 6 2
27 17 3
28 16 2
29 16 1
30 9 3
31 21 2
32 27 3
33 23 2
34 11 1
35 14 3
36 8 2
37 5 1
38 8 3
39 16 1
40 31 3
41 9 2
42 5 2
43 5 1
44 7 2
45 18 2
46 16 1
47 1 1
48 27 3
49 36 2
50 30 1
51 13 3
52 10 1
53 9 2
54 14 3
55 18 2
56 2 2
57 6 3
58 7 3
59 18 1
60 28 3
61 3 3
62 13 3
63 19 2
64 10 2
65 9 1
66 20 3
67 25 1
68 25 3
69 36 3
70 6 2
71 5 1
72 15 1
73 25 2
74 9 2
75 8 2
76 18 2
77 13 2
78 14 3
79 3 3
80 23 2
81 6 2
82 26 3
83 16 2
84 11 2
85 7 3
86 41 1
87 35 3
88 26 2
89 9 3
90 15 3
91 3 1
92 1 3
93 2 2
94 22 3
95 27 3
96 20 3
97 11 3
98 12 2
99 10 1
100 9 1
101 17 2
TIME_WINDOW_SECTION
1 0 230
2 73 204
3 18 147
4 76 165
5 73 195
6 20 167
7 49 158
8 36 135
9 50 149
10 47 156
11 85 172
12 33 152
13 15 133
14 79 208
15 32 187
16 30 152
17 29 139
18 60 189
19 47 136
20 32 146
21 79 182
22 18 136
23 50 153
24 36 155
25 58 190
26 56 186
27 87 186
28 5 140
29 6 136
30 29 150
31 25 132
32 17 138
33 67 186
34 24 161
35 70 173
36 54 178
37 41 178
38 87 190
39 42 153
40 33 186
41 40 139
42 43 160
43 25 158
44 82 185
45 31 144
46 29 169
47 63 180
48 34 176
49 65 192
50 73 152
51 75 182
52 36 149
53 11 133
54 51 148
55 90 197
56 69 189
57 76 190
58 48 163
59 84 210
60 17 183
61 70 201
62 29 132
63 25 154
64 34 172
65 46 165
66 49 170
67 68 179
68 43 156
69 80 198
70 12 137
71 48 198
72 39 148
73 22 170
74 30 135
75 74 195
76 27 141
77 27 128
78 72 200
79 42 159
80 47 146
81 73 198
82 57 140
83 23 146
84 21 157
85 57 154
86 44 147
87 49 148
88 61 134
89 21 136
90 68 211
91 46 153
92 70 194
93 18 159
94 60 199
95 58 151
96 14 143
97 89 190
98 92 183
99 21 142
100 33 142
101 51 195
SERVICE_TIME_SECTION
1 0
2 10
3 10
4 10
5 10
6 10
7 10
8 10
9 10
10 10
11 10
12 10
13 10
14 10
15 10
16 10
17 10
18 10
19 10
20 10
21 10
22 10
23 10
24 10
25 10
26 10
27 10
28 10
29 10
30 10
31 10
32 10
33 10
34 10
35 10
36 10
37 10
38 10
39 10
40 10
41 10
42 10
43 10
44 10
45 10
46 10
47 10
48 10
49 10
50 10
51 10
52 10
53 10
54 10
55 10
56 10
57 10
58 10
59 10
60 10
61 10
62 10
63 10
64 10
65 10
66 10
67 10
68 10
69 10
70 10
71 10
72 10
73 10
74 10
75 10
76 10
77 10
78 10
79 10
80 10
81 10
82 10
83 10
84 10
85 10
86 10
87 10
88 10
89 10
90 10
91 10
92 10
93 10
94 10
95 10
96 10
97 10
98 10
99 10
100 10
101 10
DEPOT_SECTION
1
-1
EOF
