NAME : RC106
COMMENT : Generated from rc106.txt
TYPE : SDVRPTW
DIMENSION : 101
EDGE_WEIGHT_TYPE : EUC_2D
CAPACITY : 100
NODE_COORD_SECTION
1 40 50
2 25 85
3 22 75
4 22 85
5 20 80
6 20 85
7 18 75
8 15 75
9 15 80
10 10 35
11 10 40
12 8 40
13 8 45
14 5 35
15 5 45
16 2 40
17 0 40
18 0 45
19 44 5
20 42 10
21 42 15
22 40 5
23 40 15
24 38 5
25 38 15
26 35 5
27 95 30
28 95 35
29 92 30
30 90 35
31 88 30
32 88 35
33 87 30
34 85 25
35 85 35
36 67 85
37 65 85
38 65 82
39 62 80
40 60 80
41 60 85
42 58 75
43 55 80
44 55 85
45 55 82
46 20 82
47 18 80
48 2 45
49 42 5
50 42 12
51 72 35
52 55 20
53 25 30
54 20 50
55 55 60
56 30 60
57 50 35
58 30 25
59 15 10
60 10 20
61 15 60
62 45 65
63 65 35
64 65 20
65 45 30
66 35 40
67 41 37
68 64 42
69 40 60
70 31 52
71 35 69
72 65 55
73 63 65
74 2 60
75 20 20
76 5 5
77 60 12
78 23 3
79 8 56
80 6 68
81 47 47
82 49 58
83 27 43
84 37 31
85 57 29
86 63 23
87 21 24
88 12 24
89 24 58
90 67 5
91 37 47
92 49 42
93 53 43
94 61 52
95 57 48
96 56 37
97 55 54
98 4 18
99 26 52
100 26 35
101 31 67
DEMAND_SECTION
1 0 0
2 20 3
3 30 2
4 10 3
5 40 1
6 20 2
7 20 2
8 20 1
9 10 3
10 20 1
11 30 2
12 40 3
13 20 1
14 10 3
15 10 3
16 20 2
17 20 2
18 20 1
19 20 3
20 40 3
21 10 3
22 10 2
23 40 1
24 30 2
25 10 2
26 20 3
27 30 2
28 20 3
29 10 2
30 10 1
31 10 2
32 20 1
33 10 2
34 10 2
35 30 2
36 20 1
37 40 3
38 10 1
39 30 3
40 10 1
41 30 3
42 20 3
43 10 2
44 20 3
45 10 2
46 10 2
47 10 3
48 10 3
49 10 2
50 10 2
51 30 3
52 19 3
53 3 2
54 5 2
55 16 3
56 16 3
57 19 1
58 23 1
59 20 1
60 19 2
61 17 2
62 9 1
63 3 2
64 6 1
65 17 3
66 16 2
67 16 2
68 9 2
69 21 2
70 27 2
71 23 3
72 14 3
73 8 1
74 5 2
75 8 2
76 16 1
77 31 2
78 7 2
79 27 3
80 30 3
81 13 2
82 10 2
83 9 1
84 14 1
85 18 1
86 2 3
87 28 3
88 13 3
89 19 2
90 25 3
91 6 2
92 13 3
93 14 3
94 3 3
95 23 1
96 6 2
97 26 3
98 35 2
99 9 1
100 15 1
101 3 1
TIME_WINDOW_SECTION
1 0 240
2 130 190
3 35 95
4 94 154
5 126 186
6 40 100
7 80 140
8 64 124
9 76 136
10 76 136
11 104 164
12 44 104
13 49 109
14 127 187
15 35 95
16 43 103
17 57 117
18 129 189
19 72 132
20 57 117
21 107 167
22 52 112
23 77 137
24 50 110
25 133 193
26 124 184
27 100 160
28 57 117
29 55 115
30 52 112
31 59 119
32 50 110
33 116 176
34 51 111
35 96 156
36 124 184
37 43 103
38 109 169
39 60 120
40 36 96
41 70 130
42 77 137
43 33 93
44 113 173
45 49 109
46 37 97
47 98 158
48 38 98
49 124 184
50 89 149
51 101 161
52 68 128
53 37 97
54 76 136
55 124 184
56 125 185
57 115 175
58 81 141
59 122 182
60 42 102
61 140 200
62 51 111
63 37 97
64 39 99
65 38 98
66 11 71
67 118 178
68 55 115
69 129 189
70 26 86
71 150 210
72 50 110
73 27 87
74 62 122
75 126 186
76 59 119
77 60 120
78 120 180
79 75 135
80 74 134
81 162 222
82 71 131
83 27 87
84 20 80
85 81 141
86 72 132
87 72 132
88 75 135
89 52 112
90 117 177
91 71 131
92 152 212
93 14 74
94 148 208
95 80 140
96 20 80
97 117 177
98 105 165
99 31 91
100 62 122
101 150 210
SERVICE_TIME_SECTION
1 0
2 10
3 10
4 10
5 10
6 10
7 10
8 10
9 10
10 10
11 10
12 10
13 10
14 10
15 10
16 10
17 10
18 10
19 10
20 10
21 10
22 10
23 10
24 10
25 10
26 10
27 10
28 10
29 10
30 10
31 10
32 10
33 10
34 10
35 10
36 10
37 10
38 10
39 10
40 10
41 10
42 10
43 10
44 10
45 10
46 10
47 10
48 10
49 10
50 10
51 10
52 10
53 10
54 10
55 10
56 10
57 10
58 10
59 10
60 10
61 10
62 10
63 10
64 10
65 10
66 10
67 10
68 10
69 10
70 10
71 10
72 10
73 10
74 10
75 10
76 10
77 10
78 10
79 10
80 10
81 10
82 10
83 10
84 10
85 10
86 10
87 10
88 10
89 10
90 10
91 10
92 10
93 10
94 10
95 10
96 10
97 10
98 10
99 10
100 10
101 10
DEPOT_SECTION
1
-1
EOF
