NAME : C105
COMMENT : Generated from c105.txt
TYPE : SDVRPTW
DIMENSION : 101
EDGE_WEIGHT_TYPE : EUC_2D
CAPACITY : 100
NODE_COORD_SECTION
1 40 50
2 45 68
3 45 70
4 42 66
5 42 68
6 42 65
7 40 69
8 40 66
9 38 68
10 38 70
11 35 66
12 35 69
13 25 85
14 22 75
15 22 85
16 20 80
17 20 85
18 18 75
19 15 75
20 15 80
21 30 50
22 30 52
23 28 52
24 28 55
25 25 50
26 25 52
27 25 55
28 23 52
29 23 55
30 20 50
31 20 55
32 10 35
33 10 40
34 8 40
35 8 45
36 5 35
37 5 45
38 2 40
39 0 40
40 0 45
41 35 30
42 35 32
43 33 32
44 33 35
45 32 30
46 30 30
47 30 32
48 30 35
49 28 30
50 28 35
51 26 32
52 25 30
53 25 35
54 44 5
55 42 10
56 42 15
57 40 5
58 40 15
59 38 5
60 38 15
61 35 5
62 50 30
63 50 35
64 50 40
65 48 30
66 48 40
67 47 35
68 47 40
69 45 30
70 45 35
71 95 30
72 95 35
73 53 30
74 92 30
75 53 35
76 45 65
77 90 35
78 88 30
79 88 35
80 87 30
81 85 25
82 85 35
83 75 55
84 72 55
85 70 58
86 68 60
87 66 55
88 65 55
89 65 60
90 63 58
91 60 55
92 60 60
93 67 85
94 65 85
95 65 82
96 62 80
97 60 80
98 60 85
99 58 75
100 55 80
101 55 85
DEMAND_SECTION
1 0 0
2 10 5
3 30 5
4 10 1
5 10 3
6 10 5
7 20 6
8 20 2
9 20 3
10 10 2
11 10 5
12 10 2
13 20 2
14 30 5
15 10 5
16 40 5
17 40 5
18 20 3
19 20 3
20 10 4
21 10 1
22 20 3
23 20 5
24 10 2
25 10 1
26 40 4
27 10 3
28 10 2
29 20 1
30 10 1
31 10 4
32 20 3
33 30 6
34 40 3
35 20 1
36 10 5
37 10 2
38 20 3
39 30 2
40 20 1
41 10 1
42 10 6
43 20 4
44 10 4
45 10 2
46 10 5
47 30 3
48 10 5
49 10 2
50 10 3
51 10 5
52 10 2
53 10 2
54 20 3
55 40 5
56 10 1
57 30 2
58 40 5
59 30 5
60 10 1
61 20 2
62 10 1
63 20 2
64 50 6
65 10 5
66 10 3
67 10 2
68 10 4
69 10 3
70 10 4
71 30 2
72 20 1
73 10 6
74 10 2
75 50 3
76 20 3
77 10 2
78 10 6
79 20 1
80 10 6
81 10 2
82 30 5
83 20 5
84 10 6
85 20 6
86 30 2
87 10 3
88 20 4
89 30 2
90 10 1
91 10 6
92 10 4
93 20 3
94 40 4
95 10 2
96 30 1
97 10 1
98 30 4
99 20 5
100 10 4
101 20 2
TYPE_CONFLICT
3 4
2 5
4 6
5 6
TIME_WINDOW_SECTION
1 0 1236
2 885 994
3 802 893
4 25 186
5 699 810
6 15 120
7 580 743
8 142 253
9 220 359
10 499 640
11 331 436
12 420 533
13 617 756
14 30 155
15 541 646
16 362 451
17 448 555
18 75 172
19 142 291
20 244 379
21 10 137
22 888 991
23 776 919
24 709 800
25 25 184
26 142 251
27 582 741
28 234 343
29 523 616
30 335 428
31 422 531
32 181 256
33 31 170
34 52 193
35 719 848
36 252 375
37 639 742
38 357 460
39 457 544
40 538 653
41 236 349
42 132 269
43 27 190
44 16 144
45 332 439
46 512 629
47 417 540
48 982 1127
49 601 724
50 969 1098
51 783 912
52 695 816
53 883 998
54 255 378
55 150 293
56 63 190
57 359 462
58 35 140
59 439 566
60 607 784
61 529 662
62 491 650
63 235 344
64 147 242
65 601 724
66 50 155
67 802 899
68 12 143
69 712 799
70 889 996
71 353 490
72 260 393
73 422 533
74 442 587
75 323 442
76 962 1103
77 175 288
78 539 678
79 78 201
80 636 763
81 744 845
82 47 201
83 344 445
84 228 375
85 425 556
86 527 640
87 141 270
88 56 173
89 614 739
90 705 834
91 20 148
92 809 916
93 331 478
94 453 540
95 260 361
96 174 261
97 64 187
98 531 652
99 30 139
100 705 858
101 608 765
SERVICE_TIME_SECTION
1 0
2 90
3 90
4 90
5 90
6 90
7 90
8 90
9 90
10 90
11 90
12 90
13 90
14 90
15 90
16 90
17 90
18 90
19 90
20 90
21 90
22 90
23 90
24 90
25 90
26 90
27 90
28 90
29 90
30 90
31 90
32 90
33 90
34 90
35 90
36 90
37 90
38 90
39 90
40 90
41 90
42 90
43 90
44 90
45 90
46 90
47 90
48 90
49 90
50 90
51 90
52 90
53 90
54 90
55 90
56 90
57 90
58 90
59 90
60 90
61 90
62 90
63 90
64 90
65 90
66 90
67 90
68 90
69 90
70 90
71 90
72 90
73 90
74 90
75 90
76 90
77 90
78 90
79 90
80 90
81 90
82 90
83 90
84 90
85 90
86 90
87 90
88 90
89 90
90 90
91 90
92 90
93 90
94 90
95 90
96 90
97 90
98 90
99 90
100 90
101 90
DEPOT_SECTION
1
-1
EOF
