NAME : C108
COMMENT : Generated from c108.txt
TYPE : SDVRPTW
DIMENSION : 101
EDGE_WEIGHT_TYPE : EUC_2D
CAPACITY : 100
NODE_COORD_SECTION
1 40 50
2 45 68
3 45 70
4 42 66
5 42 68
6 42 65
7 40 69
8 40 66
9 38 68
10 38 70
11 35 66
12 35 69
13 25 85
14 22 75
15 22 85
16 20 80
17 20 85
18 18 75
19 15 75
20 15 80
21 30 50
22 30 52
23 28 52
24 28 55
25 25 50
26 25 52
27 25 55
28 23 52
29 23 55
30 20 50
31 20 55
32 10 35
33 10 40
34 8 40
35 8 45
36 5 35
37 5 45
38 2 40
39 0 40
40 0 45
41 35 30
42 35 32
43 33 32
44 33 35
45 32 30
46 30 30
47 30 32
48 30 35
49 28 30
50 28 35
51 26 32
52 25 30
53 25 35
54 44 5
55 42 10
56 42 15
57 40 5
58 40 15
59 38 5
60 38 15
61 35 5
62 50 30
63 50 35
64 50 40
65 48 30
66 48 40
67 47 35
68 47 40
69 45 30
70 45 35
71 95 30
72 95 35
73 53 30
74 92 30
75 53 35
76 45 65
77 90 35
78 88 30
79 88 35
80 87 30
81 85 25
82 85 35
83 75 55
84 72 55
85 70 58
86 68 60
87 66 55
88 65 55
89 65 60
90 63 58
91 60 55
92 60 60
93 67 85
94 65 85
95 65 82
96 62 80
97 60 80
98 60 85
99 58 75
100 55 80
101 55 85
DEMAND_SECTION
1 0 0
2 10 4
3 30 6
4 10 1
5 10 4
6 10 3
7 20 4
8 20 1
9 20 6
10 10 5
11 10 4
12 10 1
13 20 5
14 30 4
15 10 4
16 40 6
17 40 3
18 20 2
19 20 2
20 10 3
21 10 6
22 20 2
23 20 5
24 10 2
25 10 5
26 40 1
27 10 1
28 10 4
29 20 2
30 10 5
31 10 3
32 20 1
33 30 6
34 40 1
35 20 2
36 10 3
37 10 3
38 20 4
39 30 2
40 20 6
41 10 5
42 10 3
43 20 1
44 10 4
45 10 4
46 10 3
47 30 5
48 10 4
49 10 1
50 10 5
51 10 6
52 10 2
53 10 2
54 20 1
55 40 4
56 10 3
57 30 6
58 40 3
59 30 1
60 10 6
61 20 5
62 10 6
63 20 6
64 50 3
65 10 6
66 10 1
67 10 4
68 10 5
69 10 4
70 10 4
71 30 4
72 20 5
73 10 3
74 10 3
75 50 5
76 20 5
77 10 5
78 10 2
79 20 3
80 10 5
81 10 2
82 30 6
83 20 5
84 10 2
85 20 3
86 30 2
87 10 4
88 20 1
89 30 5
90 10 3
91 10 3
92 10 6
93 20 3
94 40 3
95 10 5
96 30 2
97 10 3
98 30 6
99 20 3
100 10 5
101 20 1
TYPE_CONFLICT
1 3
4 5
2 3
3 4
2 4
1 6
1 5
2 6
3 5
3 6
TIME_WINDOW_SECTION
1 0 1236
2 830 1049
3 756 939
4 16 336
5 643 866
6 15 226
7 499 824
8 87 308
9 150 429
10 429 710
11 279 488
12 363 590
13 547 826
14 30 280
15 489 698
16 318 495
17 394 609
18 33 226
19 68 365
20 176 447
21 10 265
22 836 1043
23 704 991
24 664 845
25 15 333
26 88 305
27 502 821
28 179 398
29 476 663
30 288 475
31 368 585
32 144 293
33 31 309
34 33 313
35 655 912
36 191 436
37 588 793
38 305 512
39 414 587
40 481 710
41 180 405
42 63 338
43 19 345
44 16 273
45 278 493
46 453 688
47 355 602
48 837 1127
49 539 786
50 867 1126
51 719 976
52 635 876
53 825 1056
54 193 440
55 78 365
56 35 287
57 308 513
58 35 246
59 376 629
60 519 872
61 463 728
62 412 729
63 181 398
64 100 289
65 539 786
66 12 223
67 753 948
68 12 275
69 669 842
70 836 1049
71 284 559
72 194 459
73 367 588
74 370 659
75 263 502
76 847 1130
77 119 344
78 469 748
79 50 295
80 573 826
81 694 895
82 47 356
83 293 496
84 154 449
85 360 621
86 470 697
87 76 335
88 25 260
89 551 802
90 640 899
91 20 276
92 756 969
93 257 552
94 409 584
95 209 412
96 130 305
97 36 283
98 470 713
99 30 248
100 628 935
101 530 843
SERVICE_TIME_SECTION
1 0
2 90
3 90
4 90
5 90
6 90
7 90
8 90
9 90
10 90
11 90
12 90
13 90
14 90
15 90
16 90
17 90
18 90
19 90
20 90
21 90
22 90
23 90
24 90
25 90
26 90
27 90
28 90
29 90
30 90
31 90
32 90
33 90
34 90
35 90
36 90
37 90
38 90
39 90
40 90
41 90
42 90
43 90
44 90
45 90
46 90
47 90
48 90
49 90
50 90
51 90
52 90
53 90
54 90
55 90
56 90
57 90
58 90
59 90
60 90
61 90
62 90
63 90
64 90
65 90
66 90
67 90
68 90
69 90
70 90
71 90
72 90
73 90
74 90
75 90
76 90
77 90
78 90
79 90
80 90
81 90
82 90
83 90
84 90
85 90
86 90
87 90
88 90
89 90
90 90
91 90
92 90
93 90
94 90
95 90
96 90
97 90
98 90
99 90
100 90
101 90
DEPOT_SECTION
1
-1
EOF
