NAME : C206
COMMENT : Generated from c206.txt
TYPE : SDVRPTW
DIMENSION : 101
EDGE_WEIGHT_TYPE : EUC_2D
CAPACITY : 100
NODE_COORD_SECTION
1 40 50
2 52 75
3 45 70
4 62 69
5 60 66
6 42 65
7 16 42
8 58 70
9 34 60
10 28 70
11 35 66
12 35 69
13 25 85
14 22 75
15 22 85
16 20 80
17 20 85
18 18 75
19 15 75
20 15 80
21 30 50
22 30 56
23 28 52
24 14 66
25 25 50
26 22 66
27 8 62
28 23 52
29 4 55
30 20 50
31 20 55
32 10 35
33 10 40
34 8 40
35 8 45
36 5 35
37 5 45
38 2 40
39 0 40
40 0 45
41 36 18
42 35 32
43 33 32
44 33 35
45 32 20
46 30 30
47 34 25
48 30 35
49 36 40
50 48 20
51 26 32
52 25 30
53 25 35
54 44 5
55 42 10
56 42 15
57 40 5
58 38 15
59 38 5
60 38 10
61 35 5
62 50 30
63 50 35
64 50 40
65 48 30
66 44 25
67 47 35
68 47 40
69 42 30
70 45 35
71 95 30
72 95 35
73 53 30
74 92 30
75 53 35
76 45 65
77 90 35
78 72 45
79 78 40
80 87 30
81 85 25
82 85 35
83 75 55
84 72 55
85 70 58
86 86 46
87 66 55
88 64 46
89 65 60
90 56 64
91 60 55
92 60 60
93 67 85
94 42 58
95 65 82
96 62 80
97 62 40
98 60 85
99 58 75
100 55 80
101 55 85
DEMAND_SECTION
1 0 0
2 10 4
3 30 4
4 10 4
5 10 1
6 10 5
7 20 6
8 20 3
9 20 5
10 10 3
11 10 2
12 10 5
13 20 3
14 30 2
15 10 6
16 40 4
17 40 5
18 20 5
19 20 3
20 10 5
21 10 1
22 20 3
23 20 4
24 10 1
25 10 6
26 40 2
27 10 5
28 10 2
29 20 5
30 10 2
31 10 3
32 20 3
33 30 6
34 40 2
35 20 4
36 10 4
37 10 2
38 20 3
39 30 4
40 20 6
41 10 5
42 10 6
43 20 1
44 10 1
45 10 5
46 10 5
47 30 4
48 10 2
49 10 3
50 10 6
51 10 1
52 10 2
53 10 6
54 20 1
55 40 1
56 10 6
57 30 2
58 40 5
59 30 6
60 10 6
61 20 6
62 10 4
63 20 2
64 50 4
65 10 4
66 10 2
67 10 2
68 10 3
69 10 4
70 10 2
71 30 4
72 20 5
73 10 2
74 10 4
75 50 4
76 20 2
77 10 2
78 10 1
79 20 3
80 10 2
81 10 5
82 30 5
83 20 2
84 10 3
85 20 5
86 30 1
87 10 3
88 20 2
89 30 6
90 10 3
91 10 2
92 10 4
93 20 1
94 40 4
95 10 5
96 30 2
97 10 1
98 30 6
99 20 2
100 10 1
101 20 6
TYPE_CONFLICT
3 4
3 5
2 6
4 5
1 6
2 4
TIME_WINDOW_SECTION
1 0 3390
2 213 568
3 22 563
4 1030 1463
5 1154 1527
6 15 402
7 331 822
8 965 1340
9 2653 3280
10 2385 2976
11 2628 3113
12 2603 2952
13 1985 2412
14 2310 2659
15 1846 2365
16 2077 2514
17 1763 2264
18 2143 2638
19 1560 2083
20 1689 2144
21 10 645
22 2675 3288
23 12 505
24 1519 1926
25 23 368
26 2380 2787
27 1330 1919
28 93 484
29 1268 1785
30 168 787
31 170 595
32 585 1136
33 448 897
34 499 1030
35 1190 1661
36 666 1245
37 1076 1589
38 772 1329
39 890 1395
40 1036 1439
41 1612 2185
42 2599 3076
43 2529 2962
44 2463 2842
45 1745 2240
46 1932 2437
47 1884 2293
48 2348 2771
49 2715 3156
50 812 1281
51 2018 2725
52 2015 2544
53 2201 2728
54 1078 1593
55 998 1481
56 897 1392
57 1199 1660
58 1552 2057
59 1263 1780
60 1498 1921
61 1325 1904
62 223 738
63 18 474
64 14 360
65 246 899
66 704 1197
67 393 942
68 12 424
69 641 1070
70 534 985
71 2119 2682
72 2079 2532
73 131 644
74 2169 2818
75 87 498
76 15 607
77 2002 2419
78 2701 3258
79 2599 3164
80 2505 2870
81 2369 2816
82 2563 3002
83 1783 2226
84 1591 2232
85 1513 1928
86 1829 2388
87 1604 2027
88 2976 3275
89 1338 1913
90 1116 1753
91 2789 3279
92 1349 1712
93 518 1029
94 8 509
95 549 1186
96 744 1177
97 2713 3275
98 397 956
99 839 1276
100 272 701
101 373 790
SERVICE_TIME_SECTION
1 0
2 90
3 90
4 90
5 90
6 90
7 90
8 90
9 90
10 90
11 90
12 90
13 90
14 90
15 90
16 90
17 90
18 90
19 90
20 90
21 90
22 90
23 90
24 90
25 90
26 90
27 90
28 90
29 90
30 90
31 90
32 90
33 90
34 90
35 90
36 90
37 90
38 90
39 90
40 90
41 90
42 90
43 90
44 90
45 90
46 90
47 90
48 90
49 90
50 90
51 90
52 90
53 90
54 90
55 90
56 90
57 90
58 90
59 90
60 90
61 90
62 90
63 90
64 90
65 90
66 90
67 90
68 90
69 90
70 90
71 90
72 90
73 90
74 90
75 90
76 90
77 90
78 90
79 90
80 90
81 90
82 90
83 90
84 90
85 90
86 90
87 90
88 90
89 90
90 90
91 90
92 90
93 90
94 90
95 90
96 90
97 90
98 90
99 90
100 90
101 90
DEPOT_SECTION
1
-1
EOF
