NAME : R111
COMMENT : Generated from r111.txt
TYPE : SDVRPTW
DIMENSION : 101
EDGE_WEIGHT_TYPE : EUC_2D
CAPACITY : 100
NODE_COORD_SECTION
1 35 35
2 41 49
3 35 17
4 55 45
5 55 20
6 15 30
7 25 30
8 20 50
9 10 43
10 55 60
11 30 60
12 20 65
13 50 35
14 30 25
15 15 10
16 30 5
17 10 20
18 5 30
19 20 40
20 15 60
21 45 65
22 45 20
23 45 10
24 55 5
25 65 35
26 65 20
27 45 30
28 35 40
29 41 37
30 64 42
31 40 60
32 31 52
33 35 69
34 53 52
35 65 55
36 63 65
37 2 60
38 20 20
39 5 5
40 60 12
41 40 25
42 42 7
43 24 12
44 23 3
45 11 14
46 6 38
47 2 48
48 8 56
49 13 52
50 6 68
51 47 47
52 49 58
53 27 43
54 37 31
55 57 29
56 63 23
57 53 12
58 32 12
59 36 26
60 21 24
61 17 34
62 12 24
63 24 58
64 27 69
65 15 77
66 62 77
67 49 73
68 67 5
69 56 39
70 37 47
71 37 56
72 57 68
73 47 16
74 44 17
75 46 13
76 49 11
77 49 42
78 53 43
79 61 52
80 57 48
81 56 37
82 55 54
83 15 47
84 14 37
85 11 31
86 16 22
87 4 18
88 28 18
89 26 52
90 26 35
91 31 67
92 15 19
93 22 22
94 18 24
95 26 27
96 25 24
97 22 27
98 25 21
99 19 21
100 20 26
101 18 18
DEMAND_SECTION
1 0 0
2 10 3
3 7 5
4 13 6
5 19 2
6 26 2
7 3 3
8 5 6
9 9 2
10 16 3
11 16 2
12 12 5
13 19 5
14 23 2
15 20 2
16 8 5
17 19 1
18 2 4
19 12 4
20 17 6
21 9 4
22 11 4
23 18 6
24 29 4
25 3 2
26 6 2
27 17 5
28 16 5
29 16 4
30 9 6
31 21 5
32 27 2
33 23 5
34 11 1
35 14 1
36 8 3
37 5 6
38 8 6
39 16 1
40 31 4
41 9 6
42 5 1
43 5 4
44 7 4
45 18 3
46 16 1
47 1 6
48 27 1
49 36 3
50 30 6
51 13 6
52 10 3
53 9 4
54 14 3
55 18 2
56 2 4
57 6 5
58 7 4
59 18 4
60 28 5
61 3 1
62 13 6
63 19 2
64 10 6
65 9 2
66 20 4
67 25 5
68 25 1
69 36 4
70 6 6
71 5 6
72 15 4
73 25 4
74 9 5
75 8 1
76 18 5
77 13 1
78 14 6
79 3 4
80 23 4
81 6 1
82 26 2
83 16 3
84 11 2
85 7 1
86 41 4
87 35 3
88 26 6
89 9 4
90 15 3
91 3 3
92 1 6
93 2 1
94 22 5
95 27 2
96 20 3
97 11 5
98 12 4
99 10 3
100 9 3
101 17 3
TYPE_CONFLICT
2 3
3 5
4 5
1 2
1 5
2 5
4 6
1 3
TIME_WINDOW_SECTION
1 0 230
2 15 204
3 18 202
4 54 187
5 138 169
6 20 199
7 76 131
8 21 170
9 87 112
10 88 115
11 107 150
12 57 86
13 15 192
14 147 180
15 32 187
16 50 81
17 29 139
18 124 189
19 47 136
20 32 146
21 79 182
22 18 195
23 76 127
24 58 87
25 58 190
26 153 186
27 58 208
28 8 75
29 6 136
30 29 150
31 49 102
32 17 198
33 67 186
34 24 92
35 36 183
36 116 178
37 41 112
38 42 198
39 74 101
40 33 110
41 65 114
42 72 131
43 25 91
44 82 185
45 59 88
46 29 99
47 63 180
48 34 176
49 27 192
50 93 132
51 41 203
52 36 149
53 11 195
54 87 112
55 90 197
56 126 155
57 106 163
58 48 163
59 178 210
60 17 202
61 70 201
62 29 132
63 46 79
64 34 172
65 48 107
66 49 113
67 104 159
68 73 102
69 117 176
70 39 70
71 123 198
72 39 148
73 22 197
74 30 135
75 138 169
76 27 192
77 65 90
78 168 199
79 71 130
80 84 109
81 135 198
82 57 140
83 23 196
84 21 198
85 93 118
86 23 177
87 49 148
88 88 107
89 50 107
90 68 211
91 46 153
92 25 194
93 18 53
94 129 199
95 35 174
96 14 205
97 51 204
98 92 183
99 21 198
100 74 101
101 159 195
SERVICE_TIME_SECTION
1 0
2 10
3 10
4 10
5 10
6 10
7 10
8 10
9 10
10 10
11 10
12 10
13 10
14 10
15 10
16 10
17 10
18 10
19 10
20 10
21 10
22 10
23 10
24 10
25 10
26 10
27 10
28 10
29 10
30 10
31 10
32 10
33 10
34 10
35 10
36 10
37 10
38 10
39 10
40 10
41 10
42 10
43 10
44 10
45 10
46 10
47 10
48 10
49 10
50 10
51 10
52 10
53 10
54 10
55 10
56 10
57 10
58 10
59 10
60 10
61 10
62 10
63 10
64 10
65 10
66 10
67 10
68 10
69 10
70 10
71 10
72 10
73 10
74 10
75 10
76 10
77 10
78 10
79 10
80 10
81 10
82 10
83 10
84 10
85 10
86 10
87 10
88 10
89 10
90 10
91 10
92 10
93 10
94 10
95 10
96 10
97 10
98 10
99 10
100 10
101 10
DEPOT_SECTION
1
-1
EOF
