NAME : R203
COMMENT : Generated from r203.txt
TYPE : SDVRPTW
DIMENSION : 101
EDGE_WEIGHT_TYPE : EUC_2D
CAPACITY : 100
NODE_COORD_SECTION
1 35 35
2 41 49
3 35 17
4 55 45
5 55 20
6 15 30
7 25 30
8 20 50
9 10 43
10 55 60
11 30 60
12 20 65
13 50 35
14 30 25
15 15 10
16 30 5
17 10 20
18 5 30
19 20 40
20 15 60
21 45 65
22 45 20
23 45 10
24 55 5
25 65 35
26 65 20
27 45 30
28 35 40
29 41 37
30 64 42
31 40 60
32 31 52
33 35 69
34 53 52
35 65 55
36 63 65
37 2 60
38 20 20
39 5 5
40 60 12
41 40 25
42 42 7
43 24 12
44 23 3
45 11 14
46 6 38
47 2 48
48 8 56
49 13 52
50 6 68
51 47 47
52 49 58
53 27 43
54 37 31
55 57 29
56 63 23
57 53 12
58 32 12
59 36 26
60 21 24
61 17 34
62 12 24
63 24 58
64 27 69
65 15 77
66 62 77
67 49 73
68 67 5
69 56 39
70 37 47
71 37 56
72 57 68
73 47 16
74 44 17
75 46 13
76 49 11
77 49 42
78 53 43
79 61 52
80 57 48
81 56 37
82 55 54
83 15 47
84 14 37
85 11 31
86 16 22
87 4 18
88 28 18
89 26 52
90 26 35
91 31 67
92 15 19
93 22 22
94 18 24
95 26 27
96 25 24
97 22 27
98 25 21
99 19 21
100 20 26
101 18 18
DEMAND_SECTION
1 0 0
2 10 5
3 7 5
4 13 5
5 19 6
6 26 5
7 3 6
8 5 5
9 9 5
10 16 1
11 16 5
12 12 6
13 19 3
14 23 4
15 20 4
16 8 5
17 19 5
18 2 4
19 12 5
20 17 6
21 9 4
22 11 6
23 18 6
24 29 5
25 3 1
26 6 6
27 17 1
28 16 5
29 16 3
30 9 1
31 21 2
32 27 3
33 23 3
34 11 2
35 14 1
36 8 3
37 5 3
38 8 2
39 16 1
40 31 2
41 9 4
42 5 6
43 5 5
44 7 3
45 18 1
46 16 1
47 1 3
48 27 3
49 36 1
50 30 6
51 13 1
52 10 5
53 9 4
54 14 1
55 18 5
56 2 5
57 6 1
58 7 1
59 18 2
60 28 6
61 3 2
62 13 2
63 19 6
64 10 4
65 9 6
66 20 5
67 25 2
68 25 5
69 36 2
70 6 2
71 5 3
72 15 1
73 25 4
74 9 2
75 8 3
76 18 4
77 13 6
78 14 3
79 3 5
80 23 5
81 6 3
82 26 1
83 16 3
84 11 2
85 7 3
86 41 1
87 35 5
88 26 3
89 9 1
90 15 1
91 3 3
92 1 3
93 2 5
94 22 3
95 27 2
96 20 3
97 11 3
98 12 1
99 10 3
100 9 2
101 17 4
TYPE_CONFLICT
1 2
1 6
1 3
2 3
3 6
2 6
4 5
5 6
TIME_WINDOW_SECTION
1 0 1000
2 0 974
3 0 972
4 0 967
5 678 801
6 0 969
7 415 514
8 0 968
9 404 481
10 400 497
11 577 632
12 206 325
13 0 975
14 690 827
15 0 957
16 175 300
17 0 960
18 733 870
19 0 974
20 0 957
21 0 958
22 0 971
23 409 494
24 206 325
25 0 960
26 817 956
27 0 978
28 104 255
29 0 983
30 0 960
31 259 354
32 0 972
33 0 956
34 45 200
35 0 953
36 686 813
37 41 208
38 0 968
39 302 405
40 33 224
41 360 437
42 396 511
43 25 172
44 0 955
45 233 340
46 29 189
47 0 954
48 0 955
49 0 962
50 501 540
51 0 973
52 0 963
53 0 978
54 414 489
55 0 967
56 620 739
57 585 692
58 0 966
59 849 980
60 0 972
61 0 971
62 0 964
63 163 302
64 0 955
65 214 333
66 49 188
67 592 693
68 294 401
69 637 752
70 162 293
71 788 968
72 0 950
73 0 967
74 0 969
75 681 802
76 0 962
77 290 373
78 817 952
79 384 499
80 388 465
81 839 968
82 0 962
83 0 966
84 0 968
85 436 511
86 0 966
87 0 954
88 420 447
89 279 388
90 0 981
91 0 957
92 0 964
93 18 181
94 811 969
95 0 977
96 0 975
97 0 974
98 0 972
99 0 968
100 333 432
101 798 965
SERVICE_TIME_SECTION
1 0
2 10
3 10
4 10
5 10
6 10
7 10
8 10
9 10
10 10
11 10
12 10
13 10
14 10
15 10
16 10
17 10
18 10
19 10
20 10
21 10
22 10
23 10
24 10
25 10
26 10
27 10
28 10
29 10
30 10
31 10
32 10
33 10
34 10
35 10
36 10
37 10
38 10
39 10
40 10
41 10
42 10
43 10
44 10
45 10
46 10
47 10
48 10
49 10
50 10
51 10
52 10
53 10
54 10
55 10
56 10
57 10
58 10
59 10
60 10
61 10
62 10
63 10
64 10
65 10
66 10
67 10
68 10
69 10
70 10
71 10
72 10
73 10
74 10
75 10
76 10
77 10
78 10
79 10
80 10
81 10
82 10
83 10
84 10
85 10
86 10
87 10
88 10
89 10
90 10
91 10
92 10
93 10
94 10
95 10
96 10
97 10
98 10
99 10
100 10
101 10
DEPOT_SECTION
1
-1
EOF
