NAME : R210
COMMENT : Generated from r210.txt
TYPE : SDVRPTW
DIMENSION : 101
EDGE_WEIGHT_TYPE : EUC_2D
CAPACITY : 100
NODE_COORD_SECTION
1 35 35
2 41 49
3 35 17
4 55 45
5 55 20
6 15 30
7 25 30
8 20 50
9 10 43
10 55 60
11 30 60
12 20 65
13 50 35
14 30 25
15 15 10
16 30 5
17 10 20
18 5 30
19 20 40
20 15 60
21 45 65
22 45 20
23 45 10
24 55 5
25 65 35
26 65 20
27 45 30
28 35 40
29 41 37
30 64 42
31 40 60
32 31 52
33 35 69
34 53 52
35 65 55
36 63 65
37 2 60
38 20 20
39 5 5
40 60 12
41 40 25
42 42 7
43 24 12
44 23 3
45 11 14
46 6 38
47 2 48
48 8 56
49 13 52
50 6 68
51 47 47
52 49 58
53 27 43
54 37 31
55 57 29
56 63 23
57 53 12
58 32 12
59 36 26
60 21 24
61 17 34
62 12 24
63 24 58
64 27 69
65 15 77
66 62 77
67 49 73
68 67 5
69 56 39
70 37 47
71 37 56
72 57 68
73 47 16
74 44 17
75 46 13
76 49 11
77 49 42
78 53 43
79 61 52
80 57 48
81 56 37
82 55 54
83 15 47
84 14 37
85 11 31
86 16 22
87 4 18
88 28 18
89 26 52
90 26 35
91 31 67
92 15 19
93 22 22
94 18 24
95 26 27
96 25 24
97 22 27
98 25 21
99 19 21
100 20 26
101 18 18
DEMAND_SECTION
1 0 0
2 10 6
3 7 3
4 13 1
5 19 5
6 26 4
7 3 4
8 5 6
9 9 1
10 16 4
11 16 1
12 12 5
13 19 6
14 23 3
15 20 3
16 8 3
17 19 4
18 2 1
19 12 3
20 17 2
21 9 4
22 11 4
23 18 2
24 29 2
25 3 1
26 6 4
27 17 1
28 16 2
29 16 3
30 9 3
31 21 4
32 27 6
33 23 1
34 11 6
35 14 6
36 8 2
37 5 2
38 8 4
39 16 4
40 31 5
41 9 4
42 5 4
43 5 3
44 7 3
45 18 3
46 16 5
47 1 6
48 27 5
49 36 1
50 30 2
51 13 4
52 10 2
53 9 2
54 14 3
55 18 5
56 2 1
57 6 1
58 7 6
59 18 1
60 28 4
61 3 1
62 13 3
63 19 3
64 10 2
65 9 4
66 20 2
67 25 3
68 25 1
69 36 5
70 6 6
71 5 2
72 15 6
73 25 1
74 9 4
75 8 4
76 18 2
77 13 2
78 14 4
79 3 2
80 23 1
81 6 6
82 26 1
83 16 2
84 11 3
85 7 2
86 41 4
87 35 6
88 26 3
89 9 3
90 15 2
91 3 6
92 1 2
93 2 6
94 22 4
95 27 4
96 20 4
97 11 5
98 12 1
99 10 4
100 9 1
101 17 4
TYPE_CONFLICT
2 3
2 5
1 3
4 6
3 6
3 5
TIME_WINDOW_SECTION
1 0 1000
2 190 974
3 18 792
4 289 822
5 679 800
6 20 906
7 355 574
8 72 669
9 393 492
10 394 503
11 517 692
12 206 325
13 15 725
14 694 823
15 32 694
16 176 299
17 102 543
18 673 930
19 229 582
20 95 552
21 418 829
22 18 727
23 349 554
24 206 325
25 435 960
26 826 956
27 328 927
28 44 315
29 6 526
30 29 513
31 199 414
32 17 744
33 482 955
34 24 299
35 265 878
36 626 873
37 41 328
38 339 960
39 298 409
40 33 344
41 300 497
42 336 571
43 25 292
44 458 867
45 230 343
46 29 309
47 338 805
48 34 602
49 200 962
50 441 600
51 272 917
52 176 625
53 11 748
54 403 500
55 475 900
56 620 739
57 525 752
58 246 705
59 854 980
60 17 972
61 449 971
62 126 541
63 168 297
64 34 588
65 154 393
66 49 308
67 532 753
68 291 404
69 577 812
70 165 290
71 668 968
72 98 537
73 22 915
74 143 564
75 681 802
76 27 711
77 281 382
78 821 948
79 324 559
80 377 476
81 719 968
82 268 599
83 23 761
84 21 842
85 425 522
86 110 727
87 230 623
88 397 470
89 219 448
90 409 981
91 225 654
92 222 964
93 18 159
94 691 969
95 190 749
96 14 793
97 344 953
98 462 823
99 21 748
100 328 437
101 821 965
SERVICE_TIME_SECTION
1 0
2 10
3 10
4 10
5 10
6 10
7 10
8 10
9 10
10 10
11 10
12 10
13 10
14 10
15 10
16 10
17 10
18 10
19 10
20 10
21 10
22 10
23 10
24 10
25 10
26 10
27 10
28 10
29 10
30 10
31 10
32 10
33 10
34 10
35 10
36 10
37 10
38 10
39 10
40 10
41 10
42 10
43 10
44 10
45 10
46 10
47 10
48 10
49 10
50 10
51 10
52 10
53 10
54 10
55 10
56 10
57 10
58 10
59 10
60 10
61 10
62 10
63 10
64 10
65 10
66 10
67 10
68 10
69 10
70 10
71 10
72 10
73 10
74 10
75 10
76 10
77 10
78 10
79 10
80 10
81 10
82 10
83 10
84 10
85 10
86 10
87 10
88 10
89 10
90 10
91 10
92 10
93 10
94 10
95 10
96 10
97 10
98 10
99 10
100 10
101 10
DEPOT_SECTION
1
-1
EOF
