NAME : R211
COMMENT : Generated from r211.txt
TYPE : SDVRPTW
DIMENSION : 101
EDGE_WEIGHT_TYPE : EUC_2D
CAPACITY : 100
NODE_COORD_SECTION
1 35 35
2 41 49
3 35 17
4 55 45
5 55 20
6 15 30
7 25 30
8 20 50
9 10 43
10 55 60
11 30 60
12 20 65
13 50 35
14 30 25
15 15 10
16 30 5
17 10 20
18 5 30
19 20 40
20 15 60
21 45 65
22 45 20
23 45 10
24 55 5
25 65 35
26 65 20
27 45 30
28 35 40
29 41 37
30 64 42
31 40 60
32 31 52
33 35 69
34 53 52
35 65 55
36 63 65
37 2 60
38 20 20
39 5 5
40 60 12
41 40 25
42 42 7
43 24 12
44 23 3
45 11 14
46 6 38
47 2 48
48 8 56
49 13 52
50 6 68
51 47 47
52 49 58
53 27 43
54 37 31
55 57 29
56 63 23
57 53 12
58 32 12
59 36 26
60 21 24
61 17 34
62 12 24
63 24 58
64 27 69
65 15 77
66 62 77
67 49 73
68 67 5
69 56 39
70 37 47
71 37 56
72 57 68
73 47 16
74 44 17
75 46 13
76 49 11
77 49 42
78 53 43
79 61 52
80 57 48
81 56 37
82 55 54
83 15 47
84 14 37
85 11 31
86 16 22
87 4 18
88 28 18
89 26 52
90 26 35
91 31 67
92 15 19
93 22 22
94 18 24
95 26 27
96 25 24
97 22 27
98 25 21
99 19 21
100 20 26
101 18 18
DEMAND_SECTION
1 0 0
2 10 1
3 7 2
4 13 2
5 19 5
6 26 1
7 3 6
8 5 4
9 9 6
10 16 5
11 16 1
12 12 5
13 19 3
14 23 2
15 20 6
16 8 6
17 19 1
18 2 4
19 12 2
20 17 2
21 9 1
22 11 2
23 18 2
24 29 6
25 3 5
26 6 5
27 17 1
28 16 3
29 16 1
30 9 1
31 21 6
32 27 1
33 23 4
34 11 2
35 14 5
36 8 5
37 5 6
38 8 3
39 16 4
40 31 3
41 9 5
42 5 5
43 5 3
44 7 5
45 18 6
46 16 6
47 1 5
48 27 4
49 36 2
50 30 6
51 13 2
52 10 4
53 9 5
54 14 3
55 18 1
56 2 2
57 6 4
58 7 4
59 18 2
60 28 3
61 3 1
62 13 6
63 19 5
64 10 3
65 9 5
66 20 3
67 25 2
68 25 3
69 36 2
70 6 2
71 5 4
72 15 3
73 25 6
74 9 1
75 8 2
76 18 6
77 13 3
78 14 1
79 3 4
80 23 3
81 6 2
82 26 2
83 16 5
84 11 6
85 7 3
86 41 2
87 35 3
88 26 1
89 9 6
90 15 1
91 3 6
92 1 6
93 2 4
94 22 1
95 27 4
96 20 5
97 11 5
98 12 5
99 10 1
100 9 2
101 17 2
TYPE_CONFLICT
5 6
1 4
4 5
2 5
1 6
3 6
1 5
1 2
TIME_WINDOW_SECTION
1 0 1000
2 451 974
3 18 534
4 378 733
5 477 965
6 20 610
7 245 684
8 172 569
9 245 640
10 231 666
11 430 779
12 33 511
13 50 523
14 462 978
15 32 694
16 30 519
17 102 543
18 444 959
19 229 582
20 95 552
21 418 829
22 36 509
23 246 657
24 36 514
25 435 960
26 438 956
27 428 827
28 5 548
29 6 526
30 29 513
31 91 522
32 17 501
33 482 955
34 24 575
35 367 776
36 453 948
37 41 615
38 443 856
39 130 577
40 33 655
41 201 596
42 219 688
43 25 560
44 458 867
45 59 514
46 29 589
47 338 805
48 34 602
49 454 962
50 362 679
51 379 810
52 176 625
53 11 502
54 256 647
55 475 900
56 441 918
57 412 865
58 246 705
59 479 980
60 17 681
61 449 971
62 126 541
63 25 544
64 34 588
65 46 524
66 49 568
67 421 864
68 120 575
69 459 930
70 12 513
71 368 968
72 98 537
73 22 617
74 143 564
75 482 965
76 62 519
77 129 534
78 460 970
79 207 676
80 230 623
81 470 968
82 268 599
83 23 515
84 21 568
85 278 669
86 213 624
87 230 623
88 287 580
89 104 563
90 409 981
91 225 654
92 469 964
93 18 585
94 414 969
95 283 656
96 14 533
97 445 852
98 462 823
99 21 506
100 164 601
101 391 965
SERVICE_TIME_SECTION
1 0
2 10
3 10
4 10
5 10
6 10
7 10
8 10
9 10
10 10
11 10
12 10
13 10
14 10
15 10
16 10
17 10
18 10
19 10
20 10
21 10
22 10
23 10
24 10
25 10
26 10
27 10
28 10
29 10
30 10
31 10
32 10
33 10
34 10
35 10
36 10
37 10
38 10
39 10
40 10
41 10
42 10
43 10
44 10
45 10
46 10
47 10
48 10
49 10
50 10
51 10
52 10
53 10
54 10
55 10
56 10
57 10
58 10
59 10
60 10
61 10
62 10
63 10
64 10
65 10
66 10
67 10
68 10
69 10
70 10
71 10
72 10
73 10
74 10
75 10
76 10
77 10
78 10
79 10
80 10
81 10
82 10
83 10
84 10
85 10
86 10
87 10
88 10
89 10
90 10
91 10
92 10
93 10
94 10
95 10
96 10
97 10
98 10
99 10
100 10
101 10
DEPOT_SECTION
1
-1
EOF
