NAME : RC203
COMMENT : Generated from rc203.txt
TYPE : SDVRPTW
DIMENSION : 101
EDGE_WEIGHT_TYPE : EUC_2D
CAPACITY : 100
NODE_COORD_SECTION
1 40 50
2 25 85
3 22 75
4 22 85
5 20 80
6 20 85
7 18 75
8 15 75
9 15 80
10 10 35
11 10 40
12 8 40
13 8 45
14 5 35
15 5 45
16 2 40
17 0 40
18 0 45
19 44 5
20 42 10
21 42 15
22 40 5
23 40 15
24 38 5
25 38 15
26 35 5
27 95 30
28 95 35
29 92 30
30 90 35
31 88 30
32 88 35
33 87 30
34 85 25
35 85 35
36 67 85
37 65 85
38 65 82
39 62 80
40 60 80
41 60 85
42 58 75
43 55 80
44 55 85
45 55 82
46 20 82
47 18 80
48 2 45
49 42 5
50 42 12
51 72 35
52 55 20
53 25 30
54 20 50
55 55 60
56 30 60
57 50 35
58 30 25
59 15 10
60 10 20
61 15 60
62 45 65
63 65 35
64 65 20
65 45 30
66 35 40
67 41 37
68 64 42
69 40 60
70 31 52
71 35 69
72 65 55
73 63 65
74 2 60
75 20 20
76 5 5
77 60 12
78 23 3
79 8 56
80 6 68
81 47 47
82 49 58
83 27 43
84 37 31
85 57 29
86 63 23
87 21 24
88 12 24
89 24 58
90 67 5
91 37 47
92 49 42
93 53 43
94 61 52
95 57 48
96 56 37
97 55 54
98 4 18
99 26 52
100 26 35
101 31 67
DEMAND_SECTION
1 0 0
2 20 5
3 30 4
4 10 4
5 40 2
6 20 1
7 20 5
8 20 6
9 10 5
10 20 6
11 30 4
12 40 6
13 20 6
14 10 3
15 10 1
16 20 3
17 20 1
18 20 2
19 20 5
20 40 3
21 10 2
22 10 4
23 40 5
24 30 2
25 10 4
26 20 3
27 30 5
28 20 1
29 10 6
30 10 6
31 10 5
32 20 4
33 10 1
34 10 1
35 30 4
36 20 3
37 40 6
38 10 4
39 30 6
40 10 4
41 30 2
42 20 4
43 10 1
44 20 5
45 10 4
46 10 3
47 10 3
48 10 3
49 10 4
50 10 6
51 30 3
52 19 6
53 3 1
54 5 1
55 16 1
56 16 6
57 19 6
58 23 2
59 20 4
60 19 3
61 17 3
62 9 3
63 3 1
64 6 4
65 17 6
66 16 1
67 16 1
68 9 5
69 21 5
70 27 3
71 23 6
72 14 3
73 8 4
74 5 1
75 8 1
76 16 1
77 31 6
78 7 6
79 27 6
80 30 4
81 13 1
82 10 3
83 9 4
84 14 3
85 18 5
86 2 1
87 28 5
88 13 3
89 19 3
90 25 3
91 6 6
92 13 1
93 14 2
94 3 2
95 23 2
96 6 1
97 26 3
98 35 2
99 9 1
100 15 1
101 3 2
TYPE_CONFLICT
2 6
2 5
4 6
1 2
3 4
4 5
1 5
3 5
TIME_WINDOW_SECTION
1 0 960
2 0 911
3 0 919
4 0 910
5 644 764
6 0 909
7 388 508
8 0 914
9 367 487
10 371 491
11 519 639
12 195 315
13 0 917
14 653 773
15 0 914
16 174 294
17 0 908
18 703 823
19 0 904
20 0 909
21 0 914
22 0 905
23 375 495
24 201 321
25 0 914
26 784 904
27 0 891
28 146 266
29 0 894
30 0 897
31 246 366
32 0 899
33 0 898
34 80 200
35 0 902
36 657 777
37 43 163
38 0 909
39 278 398
40 64 184
41 329 449
42 376 496
43 33 153
44 0 911
45 217 337
46 37 157
47 0 912
48 0 911
49 0 904
50 440 560
51 0 914
52 0 916
53 0 925
54 375 495
55 0 931
56 599 719
57 557 677
58 0 923
59 782 902
60 0 907
61 0 923
62 0 934
63 167 287
64 0 910
65 191 311
66 11 131
67 566 686
68 268 388
69 612 732
70 157 277
71 810 930
72 0 924
73 0 922
74 0 910
75 645 765
76 0 892
77 268 388
78 764 884
79 365 485
80 352 472
81 822 942
82 0 937
83 0 935
84 0 930
85 395 515
86 0 914
87 0 917
88 359 479
89 260 380
90 0 897
91 0 945
92 0 937
93 14 134
94 808 928
95 0 932
96 0 929
97 0 934
98 0 901
99 0 935
100 308 428
101 810 930
SERVICE_TIME_SECTION
1 0
2 10
3 10
4 10
5 10
6 10
7 10
8 10
9 10
10 10
11 10
12 10
13 10
14 10
15 10
16 10
17 10
18 10
19 10
20 10
21 10
22 10
23 10
24 10
25 10
26 10
27 10
28 10
29 10
30 10
31 10
32 10
33 10
34 10
35 10
36 10
37 10
38 10
39 10
40 10
41 10
42 10
43 10
44 10
45 10
46 10
47 10
48 10
49 10
50 10
51 10
52 10
53 10
54 10
55 10
56 10
57 10
58 10
59 10
60 10
61 10
62 10
63 10
64 10
65 10
66 10
67 10
68 10
69 10
70 10
71 10
72 10
73 10
74 10
75 10
76 10
77 10
78 10
79 10
80 10
81 10
82 10
83 10
84 10
85 10
86 10
87 10
88 10
89 10
90 10
91 10
92 10
93 10
94 10
95 10
96 10
97 10
98 10
99 10
100 10
101 10
DEPOT_SECTION
1
-1
EOF
