NAME : RC202
COMMENT : Generated from rc202.txt
TYPE : SDVRPTW
DIMENSION : 101
EDGE_WEIGHT_TYPE : EUC_2D
CAPACITY : 100
NODE_COORD_SECTION
1 40 50
2 25 85
3 22 75
4 22 85
5 20 80
6 20 85
7 18 75
8 15 75
9 15 80
10 10 35
11 10 40
12 8 40
13 8 45
14 5 35
15 5 45
16 2 40
17 0 40
18 0 45
19 44 5
20 42 10
21 42 15
22 40 5
23 40 15
24 38 5
25 38 15
26 35 5
27 95 30
28 95 35
29 92 30
30 90 35
31 88 30
32 88 35
33 87 30
34 85 25
35 85 35
36 67 85
37 65 85
38 65 82
39 62 80
40 60 80
41 60 85
42 58 75
43 55 80
44 55 85
45 55 82
46 20 82
47 18 80
48 2 45
49 42 5
50 42 12
51 72 35
52 55 20
53 25 30
54 20 50
55 55 60
56 30 60
57 50 35
58 30 25
59 15 10
60 10 20
61 15 60
62 45 65
63 65 35
64 65 20
65 45 30
66 35 40
67 41 37
68 64 42
69 40 60
70 31 52
71 35 69
72 65 55
73 63 65
74 2 60
75 20 20
76 5 5
77 60 12
78 23 3
79 8 56
80 6 68
81 47 47
82 49 58
83 27 43
84 37 31
85 57 29
86 63 23
87 21 24
88 12 24
89 24 58
90 67 5
91 37 47
92 49 42
93 53 43
94 61 52
95 57 48
96 56 37
97 55 54
98 4 18
99 26 52
100 26 35
101 31 67
DEMAND_SECTION
1 0 0
2 20 3
3 30 3
4 10 6
5 40 4
6 20 5
7 20 3
8 20 3
9 10 2
10 20 3
11 30 4
12 40 1
13 20 3
14 10 1
15 10 5
16 20 5
17 20 3
18 20 5
19 20 1
20 40 1
21 10 1
22 10 3
23 40 1
24 30 4
25 10 1
26 20 4
27 30 6
28 20 5
29 10 6
30 10 1
31 10 6
32 20 5
33 10 4
34 10 6
35 30 5
36 20 5
37 40 5
38 10 5
39 30 4
40 10 4
41 30 3
42 20 3
43 10 1
44 20 5
45 10 1
46 10 4
47 10 2
48 10 1
49 10 5
50 10 4
51 30 3
52 19 3
53 3 1
54 5 1
55 16 6
56 16 1
57 19 5
58 23 3
59 20 2
60 19 1
61 17 3
62 9 5
63 3 2
64 6 2
65 17 3
66 16 5
67 16 2
68 9 4
69 21 5
70 27 2
71 23 2
72 14 5
73 8 1
74 5 5
75 8 5
76 16 5
77 31 5
78 7 5
79 27 6
80 30 1
81 13 1
82 10 3
83 9 4
84 14 2
85 18 1
86 2 4
87 28 6
88 13 1
89 19 4
90 25 3
91 6 5
92 13 5
93 14 2
94 3 3
95 23 3
96 6 1
97 26 2
98 35 3
99 9 1
100 15 1
101 3 2
TYPE_CONFLICT
1 5
2 3
1 2
1 3
3 6
3 4
TIME_WINDOW_SECTION
1 0 960
2 0 911
3 0 919
4 0 910
5 644 764
6 0 909
7 388 508
8 0 914
9 367 487
10 371 491
11 519 639
12 195 315
13 0 917
14 653 773
15 35 155
16 174 294
17 255 375
18 703 823
19 335 455
20 254 374
21 537 657
22 0 905
23 375 495
24 201 321
25 681 801
26 784 904
27 0 891
28 146 266
29 149 269
30 194 314
31 246 366
32 0 899
33 621 741
34 80 200
35 0 902
36 657 777
37 43 163
38 0 909
39 278 398
40 64 184
41 329 449
42 376 496
43 33 153
44 574 694
45 217 337
46 37 157
47 489 609
48 105 225
49 0 904
50 440 560
51 0 914
52 326 446
53 0 925
54 375 495
55 601 721
56 599 719
57 557 677
58 397 517
59 782 902
60 0 907
61 694 814
62 258 378
63 167 287
64 39 159
65 191 311
66 11 131
67 566 686
68 268 388
69 612 732
70 157 277
71 810 930
72 241 361
73 0 922
74 286 406
75 645 765
76 0 892
77 268 388
78 764 884
79 365 485
80 352 472
81 822 942
82 355 475
83 0 935
84 0 930
85 395 515
86 0 914
87 349 469
88 359 479
89 260 380
90 713 833
91 359 479
92 0 937
93 14 134
94 808 928
95 0 932
96 0 929
97 0 934
98 547 667
99 0 935
100 308 428
101 810 930
SERVICE_TIME_SECTION
1 0
2 10
3 10
4 10
5 10
6 10
7 10
8 10
9 10
10 10
11 10
12 10
13 10
14 10
15 10
16 10
17 10
18 10
19 10
20 10
21 10
22 10
23 10
24 10
25 10
26 10
27 10
28 10
29 10
30 10
31 10
32 10
33 10
34 10
35 10
36 10
37 10
38 10
39 10
40 10
41 10
42 10
43 10
44 10
45 10
46 10
47 10
48 10
49 10
50 10
51 10
52 10
53 10
54 10
55 10
56 10
57 10
58 10
59 10
60 10
61 10
62 10
63 10
64 10
65 10
66 10
67 10
68 10
69 10
70 10
71 10
72 10
73 10
74 10
75 10
76 10
77 10
78 10
79 10
80 10
81 10
82 10
83 10
84 10
85 10
86 10
87 10
88 10
89 10
90 10
91 10
92 10
93 10
94 10
95 10
96 10
97 10
98 10
99 10
100 10
101 10
DEPOT_SECTION
1
-1
EOF
